@RELATION Pampa_Data

@ATTRIBUTE LOGPcons NUMERIC
@ATTRIBUTE MACCSFP125 NUMERIC
@ATTRIBUTE PCR NUMERIC
@ATTRIBUTE Psi_e_A NUMERIC
@ATTRIBUTE P_VSA_ppp_D NUMERIC
@ATTRIBUTE Mp NUMERIC
@ATTRIBUTE SpMin1_Bh(p) NUMERIC
@ATTRIBUTE Actividad {Act-1,Act1}

@DATA
4.8347,1,1.5385,7.5345,18.0108,0.6771,2.0792,Act1
6.1425,0,1.1563,7.4397,85.3667,0.6118,2.0637,Act1
4.9651,0,1.1828,7.5611,128.05,0.6097,2.0634,Act-1
3.8784,0,1.1546,7.6389,128.05,0.6084,2.0599,Act-1
-7.2543,1,1.1107,8.3892,735.3297,0.6162,2.0389,Act-1
-2.2527,0,1.2483,8.6786,85.3667,0.6252,2.0328,Act-1
-1.4625,0,1.2536,8.1515,85.3667,0.6131,2.0236,Act-1
-0.3646,1,1.3874,7.4583,16.7855,0.648,2.0224,Act-1
1.6982,0,1.2483,7.918,42.6833,0.6364,2.0364,Act-1
1.6402,1,1.3725,8.0294,0.0,0.9014,1.9936,Act1
2.901,1,1.3873,8.0625,0.0,0.7708,2.0033,Act1
1.0608,1,1.4494,7.9091,16.7855,0.708,2.1507,Act-1
2.6525,1,1.4262,7.8077,0.0,0.7219,2.0476,Act-1
1.9037,0,1.1569,8.4943,121.3882,0.6718,1.9778,Act-1
2.9268,0,1.1932,7.6574,93.5913,0.6951,2.0468,Act-1
1.5714,1,1.4087,7.6225,36.0215,0.7283,2.0967,Act-1
5.025,1,1.458,7.8864,42.6833,0.7764,2.0132,Act-1
4.8115,0,1.0654,7.381,42.6833,0.635,2.137,Act-1
3.98,0,1.1217,7.6377,42.6833,0.6491,2.1327,Act-1
4.296,0,1.0861,7.5903,85.489,0.6335,2.1362,Act1
4.3047,0,1.0829,7.6389,42.6833,0.6456,2.1343,Act1
3.8315,0,1.0789,7.6212,42.6833,0.6418,2.1348,Act-1
4.1879,0,1.0767,7.5942,42.6833,0.6386,2.1365,Act1
3.9093,0,1.1869,7.6667,42.6833,0.6605,2.1183,Act1
5.2825,0,1.0708,7.4203,42.6833,0.6392,2.1364,Act-1
4.1593,0,1.1804,7.6364,85.3667,0.6532,2.1335,Act1
4.4183,0,1.1783,7.5217,42.6833,0.6491,2.1343,Act1
5.6074,0,1.1666,7.4198,42.6833,0.6456,2.1347,Act1
3.8039,0,1.077,7.6136,42.6833,0.6418,2.1332,Act1
4.6611,0,1.0753,7.7024,0.0,0.6333,2.1379,Act-1
4.2574,0,1.079,7.6933,0.0,0.6419,2.135,Act1
2.9872,0,1.276,8.3565,42.6833,0.6609,2.0121,Act-1
1.9326,0,1.1445,8.3179,42.6833,0.6733,1.8844,Act-1
1.7726,1,1.4442,8.281,169.1718,0.6621,2.1193,Act1
2.5313,0,1.2813,7.5972,0.0,0.663,2.0121,Act-1
2.6812,0,1.2599,7.5128,18.0108,0.6759,1.9742,Act1
2.9554,0,1.2748,7.8532,18.0108,0.8001,1.9461,Act-1
2.7116,1,1.4706,7.9369,18.0108,0.7388,2.0755,Act1
2.0322,1,1.4757,7.873,18.0108,0.7128,2.0766,Act1
5.0573,1,1.3567,7.3512,0.0,0.677,2.092,Act1
-0.2549,0,1.0496,7.2278,195.4072,0.5955,1.9735,Act1
5.1996,1,1.3556,7.7593,0.0,0.7352,2.0043,Act1
2.9509,1,1.3372,7.9653,65.7944,0.644,2.0187,Act1
4.1498,1,1.3444,7.9259,65.7944,0.6772,2.0195,Act1
3.3659,0,1.1513,7.8476,85.3667,0.6264,2.0287,Act1
-0.1578,0,1.3101,8.5111,60.5716,0.6527,1.985,Act-1
1.0788,0,1.0609,7.8816,121.6328,0.5759,2.0098,Act-1
2.2489,0,1.2661,9.057,60.6941,0.6621,2.0184,Act1
6.5501,1,1.623,8.0812,718.818,0.6353,2.1346,Act-1
2.7171,0,1.2236,7.6898,0.0,0.6449,1.9471,Act1
2.3318,0,1.1158,7.9704,128.05,0.6257,1.9503,Act1
3.0072,0,1.2681,7.7333,0.0,0.6422,2.0339,Act-1
2.8541,0,1.0317,7.9922,114.7263,0.5948,2.0522,Act-1
1.2367,0,1.2399,8.5833,42.6833,0.6222,1.8538,Act-1
0.7414,0,1.2096,8.2593,136.2746,0.6745,2.062,Act-1
4.3818,0,1.2067,8.5633,0.0,0.6278,2.0214,Act1
2.8949,0,1.1651,7.49,0.0,0.6482,2.1532,Act1
1.7651,0,1.1951,7.6898,50.9079,0.6544,2.1315,Act-1
1.5135,0,1.2653,7.5641,36.0215,0.6281,2.0077,Act-1
0.2791,0,1.2291,8.5573,178.7129,0.6133,2.0275,Act-1
1.6122,1,1.4044,8.0181,34.6738,0.699,2.0249,Act1
3.8867,1,1.4583,7.9949,136.2746,0.6751,2.0914,Act1
4.3867,0,1.0549,7.325,0.0,0.6274,2.1504,Act-1
3.2334,1,1.3426,7.3382,18.0108,0.698,2.0544,Act1
3.0393,0,1.1797,8.0139,39.0961,0.6586,2.133,Act1
5.4305,0,1.112,7.7523,0.0,0.6352,2.1978,Act1
1.6389,0,1.0621,7.9679,128.05,0.6195,2.1447,Act1
3.242,0,1.1817,7.4954,75.5805,0.6301,2.1384,Act-1
3.014,1,1.3177,8.4962,36.0215,0.6541,2.0291,Act1
4.1194,1,1.4376,8.5332,36.0215,0.6507,2.0986,Act1
4.339,1,1.4054,7.6543,93.5913,0.6806,2.0049,Act1
1.8624,1,1.594,7.6282,0.0,0.6911,2.1014,Act1
2.6434,1,1.3202,8.3967,42.6833,0.6632,2.0679,Act1
2.3659,1,1.4208,8.0635,34.6738,0.6971,1.9822,Act1
-1.8572,0,1.0647,8.3684,36.0215,0.6117,2.0435,Act-1
1.3023,1,1.3272,7.6875,77.4796,0.6498,2.1227,Act-1
3.72,1,1.2419,7.9655,42.6833,0.7018,1.9772,Act1
1.077,0,1.2496,7.8939,75.5805,0.6262,2.0158,Act1
-1.8682,0,1.048,9.1667,118.2639,0.5538,1.8957,Act-1
-1.2147,0,1.0861,8.3488,151.0739,0.6404,2.0166,Act-1
-0.3326,0,1.0972,8.325,135.0494,0.6436,2.0103,Act-1
2.2121,0,1.0865,7.9268,42.6833,0.6515,2.0171,Act-1
6.1342,0,1.1776,8.6622,0.0,0.6227,2.0856,Act-1
1.9036,0,1.2993,8.0946,188.7441,0.6298,2.0853,Act1
0.0711,0,1.2553,8.0981,104.9402,0.6222,2.1002,Act1
3.8666,0,1.0243,7.7991,93.5913,0.615,2.1228,Act1
5.303,1,1.1633,7.875,0.0,0.614,2.0644,Act-1
2.2894,0,1.0378,7.878,85.3667,0.6209,2.1624,Act1
1.8481,0,1.0336,7.8509,128.05,0.6195,2.1623,Act-1
4.2468,0,1.0992,8.0376,42.6833,0.6362,2.1293,Act1
1.7617,0,1.1004,8.3506,128.05,0.624,2.1411,Act-1
3.2614,0,1.0979,8.2452,85.3667,0.6207,2.1412,Act1
4.2187,0,1.1468,7.9683,42.6833,0.6712,2.1286,Act1
1.7974,0,1.1018,8.1726,128.05,0.6251,2.1405,Act-1
2.6651,0,1.1705,8.1019,85.3667,0.6449,2.1405,Act1
2.5776,0,1.1036,8.0525,85.3667,0.6282,2.1406,Act1
2.6037,1,1.321,7.6553,36.0215,0.6439,2.0198,Act1
2.7343,0,1.0141,7.9568,42.6833,0.6054,2.106,Act-1
3.9556,1,1.3992,7.9412,52.807,0.7364,2.0326,Act1
4.1361,0,1.1426,8.3063,42.6833,0.6571,2.1406,Act1
1.4033,1,1.3147,7.8188,16.7855,0.6469,2.0813,Act-1
0.985,0,1.2272,8.3889,60.6941,0.6534,2.0946,Act-1
2.9302,1,1.2493,7.6284,18.0108,0.6309,2.0744,Act1
4.7444,1,1.231,7.8817,42.6833,0.6586,2.123,Act1
3.7854,1,1.4996,7.9295,42.6833,0.671,2.0971,Act1
2.3352,1,1.4153,7.7069,46.4181,0.6687,2.0801,Act1
2.9557,1,1.3977,7.6176,42.6833,0.6422,2.1537,Act1
2.3566,1,1.4661,7.5536,16.663,0.6699,2.1454,Act1
-6.6658,0,1.0757,8.3478,308.5719,0.5965,2.0392,Act-1
-5.3984,1,1.0925,8.3465,495.3401,0.6549,2.0342,Act-1
2.603,0,1.0976,7.8224,170.7334,0.6203,2.1489,Act1
-2.1574,1,1.2562,8.4767,426.8334,0.6259,2.0711,Act-1
-1.5253,0,1.0426,9.2465,0.0,0.6757,1.6252,Act-1
0.0925,0,1.363,8.1705,502.414,0.5993,2.0541,Act-1
0.7936,1,1.2195,7.9603,128.05,0.6364,2.1059,Act-1
5.0192,1,1.319,8.9714,18.0108,0.6953,2.0239,Act1
0.5195,0,1.2382,8.5944,160.9472,0.6211,2.0243,Act-1
0.88,0,1.2417,8.4107,118.2639,0.6273,2.0241,Act-1
2.6483,1,1.3062,8.9799,60.6941,0.6818,2.0351,Act-1
-1.6575,0,1.1293,8.4769,160.9472,0.6018,1.9741,Act1
-1.5505,0,1.1499,8.6083,0.0,0.6648,1.994,Act-1
2.8784,1,1.5087,7.7323,103.3774,0.6979,2.0807,Act1
0.614,0,1.1018,8.3155,170.7334,0.6241,2.1405,Act-1
1.6492,0,1.0605,8.1667,128.05,0.6184,2.1458,Act-1
1.3917,0,1.1039,8.2006,128.05,0.6272,2.14,Act1
1.4264,0,1.1054,8.0032,128.05,0.6284,2.1394,Act1
2.0832,0,1.2035,8.25,85.3667,0.66,2.1394,Act-1
0.575,0,1.1052,8.313,85.3667,0.6487,2.1393,Act-1
1.5389,0,1.0619,7.9647,128.05,0.6195,2.1447,Act1
1.0799,0,1.0649,8.1944,85.3667,0.6242,2.1447,Act-1
0.686,0,1.0633,8.2796,85.3667,0.6396,2.1446,Act-1
1.6408,0,1.1058,8.1944,128.05,0.628,2.1394,Act-1
1.4063,0,1.1135,8.0545,85.3667,0.6379,2.1358,Act-1
5.1619,0,1.0548,7.5806,42.6833,0.6218,2.1347,Act1
6.0062,0,1.0541,7.4417,0.0,0.6227,2.135,Act-1
5.4531,0,1.1464,7.5361,0.0,0.6454,2.1349,Act-1
4.5984,0,1.1196,7.5891,0.0,0.6394,2.1349,Act1
2.7416,0,1.1615,7.7103,128.05,0.6333,2.1333,Act1
3.6855,0,1.1644,7.5292,85.3667,0.6374,2.1333,Act-1
5.9848,0,1.1479,7.4684,42.6833,0.6318,2.1336,Act1
3.7116,0,1.1781,7.5958,42.6833,0.6496,2.1328,Act1
4.936,0,1.1584,7.6715,42.6833,0.6545,2.1345,Act1
2.6648,0,1.115,7.875,42.6833,0.6338,2.1392,Act-1
2.7187,0,1.069,7.6771,85.3667,0.6327,2.1172,Act1
4.4483,0,1.0,7.1984,42.6833,0.6377,2.1367,Act-1
3.5911,0,1.0686,7.5079,42.6833,0.6238,2.146,Act-1
3.0541,0,1.0811,7.9633,0.0,0.6384,2.1471,Act1
5.7179,0,1.1439,7.5323,0.0,0.6428,2.1444,Act-1
3.6601,0,1.0722,7.5714,0.0,0.6342,2.1437,Act1
4.0732,0,1.0572,7.4846,0.0,0.6453,2.1117,Act1
5.9626,0,1.1702,8.473,36.0215,0.6342,2.1451,Act-1
3.2148,0,1.133,7.7101,42.6833,0.6469,2.124,Act1
3.242,0,1.1817,7.4954,75.5805,0.6301,2.1384,Act1
1.9871,1,1.3155,7.8447,34.6738,0.6752,2.0238,Act1
4.5612,1,1.3233,8.93,36.0215,0.6462,2.0418,Act1
3.0872,1,1.3994,8.572,68.9187,0.7257,1.9855,Act1
2.2297,1,1.5104,7.8922,0.0,0.6684,2.0976,Act1
2.969,1,1.2987,8.1929,93.5913,0.6243,2.0395,Act1
3.5297,0,1.0077,7.7083,85.3667,0.6069,2.156,Act1
4.178,0,1.0078,7.6726,128.05,0.6036,2.1559,Act1
3.1324,0,1.0326,7.9368,42.6833,0.6225,2.1484,Act-1
3.2051,0,1.0075,7.7989,170.7334,0.6015,2.1556,Act1
3.588,0,1.1904,8.4042,0.0,0.6286,2.0328,Act-1
3.5875,1,1.5005,7.7599,95.2453,0.656,2.0749,Act-1
0.6723,0,1.0457,8.3016,42.6833,0.6326,1.9081,Act-1
0.3333,0,1.2378,8.3974,160.9472,0.613,2.0164,Act-1
0.7005,0,1.2437,8.1667,118.2639,0.6193,2.0161,Act1
1.8902,1,1.294,8.4167,111.602,0.6508,2.0932,Act1
1.3869,0,1.161,8.2067,103.3774,0.6257,2.0248,Act-1
2.5179,1,1.3475,8.0303,50.9079,0.6515,2.0326,Act-1
2.3704,1,1.3122,7.9206,146.0608,0.6425,2.0359,Act1
-1.899,0,1.1314,8.3039,172.2961,0.6,2.0577,Act-1
-0.6974,0,1.208,8.4632,267.449,0.7548,1.987,Act-1
4.1325,1,1.4087,7.8407,50.9079,0.6875,2.0403,Act-1
1.2937,1,1.5369,8.1253,636.7138,0.6518,2.103,Act1
-0.7843,0,1.1733,8.7024,132.6874,0.6562,2.0673,Act-1
3.9531,0,1.1384,7.7645,0.0,0.6512,2.1116,Act1
4.0595,1,1.2266,7.7903,16.405,0.6784,2.0937,Act1
3.4213,1,1.2822,7.677,36.0215,0.6589,2.0179,Act1
-0.7843,0,1.1733,8.7024,132.6874,0.6562,2.0673,Act-1
0.8978,1,1.3147,8.0804,139.3989,0.6401,2.0757,Act1
3.5858,0,1.2026,7.8333,103.3774,0.6366,2.0738,Act1
1.8955,0,1.2893,8.0714,111.602,0.6221,2.0472,Act1
1.3763,0,1.2789,8.0114,111.602,0.6131,2.0497,Act1
4.554,0,1.055,7.4357,34.4157,0.6209,2.1232,Act1
1.8749,0,1.1045,8.1691,128.05,0.6262,2.145,Act-1
2.0106,0,1.1018,8.0337,128.05,0.6413,2.1285,Act1
1.6676,0,1.1111,8.0278,85.3667,0.6351,2.1358,Act1
3.5681,0,1.1705,8.0741,85.3667,0.6465,2.1409,Act-1
-0.73,0,1.259,8.4245,246.3139,0.6433,2.1498,Act-1
3.9668,1,1.3839,7.5833,85.5817,0.6382,2.1022,Act1
0.1983,0,1.0349,7.847,384.1501,0.5988,2.1507,Act-1
-0.2445,0,1.2994,8.1578,288.9972,0.6109,2.0513,Act-1
2.8725,0,1.1513,7.819,103.3774,0.6254,2.0322,Act-1
3.9865,1,1.2311,7.47,42.6833,0.6386,2.0788,Act-1
1.8765,0,1.199,8.1528,49.1797,0.6604,2.0592,Act-1
3.2761,0,1.2648,8.0435,128.05,0.6257,2.0338,Act1
4.1018,1,1.3828,8.0833,18.0108,0.6717,1.9999,Act1
3.8606,1,1.3799,7.8951,18.0108,0.6731,1.9982,Act1
2.6714,1,1.4749,7.7011,0.0,0.679,2.0262,Act1
2.6714,1,1.4749,7.7011,0.0,0.679,2.0262,Act1
3.1759,1,1.2355,7.879,103.3774,0.6389,2.1052,Act1
2.4536,0,1.2295,8.4107,60.6941,0.6418,2.1022,Act-1
1.2238,0,1.1729,8.0929,159.679,0.625,2.1064,Act-1
1.2625,1,1.3455,8.0644,18.0108,0.6651,2.1247,Act-1
1.308,0,1.2455,8.279,75.5805,0.6604,2.1101,Act-1
3.4939,1,1.347,8.1828,60.6941,0.6729,2.0942,Act1
-1.0829,0,1.0921,8.8137,103.3774,0.6082,1.9662,Act-1
1.7247,0,1.027,7.8379,256.1001,0.6028,2.1565,Act1
2.6703,0,1.0278,7.7731,213.4167,0.604,2.1568,Act-1
-0.2719,0,1.0248,7.9508,384.1501,0.5986,2.1565,Act-1
1.4058,0,1.0,7.2115,0.0,0.64,2.0985,Act-1
-7.1918,0,1.0297,8.5341,572.8942,0.5767,2.0675,Act-1
3.2876,1,1.2211,7.2121,0.0,0.6969,2.1635,Act-1
-0.3356,0,1.0,8.2469,0.0,0.6372,2.0017,Act-1
0.6032,0,1.0,7.1111,0.0,0.5816,2.1367,Act1
-1.7041,0,1.048,8.4583,42.6833,0.5551,2.0341,Act-1
-1.9713,0,1.0331,8.4545,85.3667,0.5585,2.0498,Act-1
-1.1729,0,1.0,7.2143,0.0,0.5607,2.0709,Act1
0.3025,0,1.0,7.1667,0.0,0.5664,2.0622,Act1
-1.7482,0,1.0,7.8571,42.6833,0.5433,2.0382,Act-1
-1.8571,0,1.037,8.1667,32.8972,0.5548,2.0405,Act-1
-3.635,0,1.111,8.5735,155.3957,0.6232,2.0377,Act-1
-2.1953,1,1.338,8.2083,121.3882,0.6314,2.1236,Act1
-0.907,0,1.1256,7.9493,42.6833,0.6339,2.0638,Act-1
-0.4984,0,1.1256,7.7319,42.6833,0.6294,2.0865,Act1
0.4545,1,1.123,7.6955,42.6833,0.6899,2.0838,Act-1
0.4009,0,1.1396,7.6894,42.6833,0.6226,2.0804,Act-1
2.6316,1,1.3074,7.3175,0.0,0.6614,2.13,Act1
0.9688,0,1.1399,7.663,42.6833,0.6206,2.0271,Act-1
1.2626,1,1.2354,7.7233,42.6833,0.6448,2.1146,Act-1
1.6176,1,1.2296,7.6955,42.6833,0.6416,2.1247,Act-1
1.3979,0,1.1302,7.3587,42.6833,0.6119,2.1273,Act-1
0.5138,1,1.2435,7.0303,0.0,0.7155,2.1092,Act-1
0.0978,0,1.1541,7.6859,85.3667,0.6412,2.19,Act-1
2.3928,1,1.2043,7.3767,0.0,0.6452,2.1182,Act1
3.2433,1,1.4554,7.6577,0.0,0.6238,2.1671,Act-1
-1.3173,0,1.1468,8.0365,93.5913,0.6638,2.0765,Act-1
3.3306,1,1.5688,7.5833,0.0,0.6885,2.2717,Act1
1.5383,1,1.4857,7.4265,131.5887,0.7035,2.2419,Act-1
0.8323,1,1.4765,7.1667,0.0,0.7385,2.0496,Act-1
1.3048,1,1.1988,7.6699,42.6833,0.6517,2.1781,Act-1
2.0261,1,1.5329,7.6176,65.7944,0.684,2.2419,Act-1
0.616,0,1.3313,7.9667,42.8057,0.6385,2.0666,Act-1
2.3465,1,1.401,7.3095,3.1243,0.6614,2.0524,Act1
1.3909,1,1.3229,7.8021,3.1243,0.6608,2.0577,Act-1
2.4302,1,1.3455,7.3914,3.1243,0.6658,2.0516,Act-1
2.2468,1,1.3515,7.4259,3.1243,0.7012,2.0679,Act-1
1.639,1,1.3571,7.3333,3.1243,0.6803,2.0718,Act-1
1.8515,0,1.153,7.2659,3.1243,0.6087,2.041,Act-1
1.2638,1,1.3152,7.5139,3.1243,0.6612,2.0603,Act-1
0.518,1,1.2844,7.4074,3.1243,0.6615,2.0426,Act-1
1.1132,1,1.3189,7.4386,3.1243,0.6452,2.0577,Act-1
2.1139,0,1.194,7.3981,36.0215,0.6849,2.1074,Act-1
-0.2675,0,1.1445,7.7063,45.8077,0.625,2.0599,Act-1
0.3392,1,1.318,7.6795,3.1243,0.6633,2.1027,Act-1
1.3244,1,1.382,7.4686,21.1351,0.6826,2.0963,Act-1
-0.9123,1,1.3257,7.7564,21.1351,0.6544,2.0962,Act-1
2.2695,1,1.3113,7.9137,3.1243,0.6603,2.1001,Act-1
1.9462,1,1.3207,7.3578,3.1243,0.6856,2.0987,Act-1
1.9796,1,1.4403,7.4206,18.0108,0.6912,2.1259,Act-1
2.2183,1,1.402,7.3167,18.0108,0.6667,2.0442,Act-1
-0.5787,0,1.2536,7.7121,60.6941,0.6164,2.0343,Act-1
1.6959,1,1.3554,7.3083,18.0108,0.6513,2.0468,Act-1
0.0426,0,1.2035,8.5722,93.5913,0.6734,2.0315,Act-1
3.8574,1,1.4601,8.1286,18.0108,0.7578,2.0504,Act1
2.5467,1,1.3755,8.0871,0.0,0.7165,2.0321,Act-1
1.0282,1,1.2618,8.2315,32.8972,0.6545,2.0621,Act1
0.994,1,1.3763,8.2917,34.4157,0.6989,2.0636,Act1
1.7265,1,1.4214,7.9599,0.0,0.6864,2.0835,Act1
2.2739,1,1.4685,8.1167,18.0108,0.7149,2.0795,Act1
2.2681,1,1.5116,7.9684,18.0108,0.7099,2.0808,Act1
0.8144,1,1.4214,7.9969,0.0,0.6849,2.0755,Act-1
1.3564,1,1.4685,8.1567,18.0108,0.7139,2.0711,Act-1
-1.8933,1,1.2853,8.1872,193.8444,0.6285,2.0078,Act-1
-0.7666,0,1.0419,8.4167,75.5805,0.6432,1.8726,Act-1
3.2836,0,1.0,7.4295,0.0,0.7356,1.6094,Act1
5.6062,0,1.2412,7.6159,85.3667,0.6289,2.0912,Act1
0.346,0,1.0622,8.5333,103.3774,0.6051,1.9335,Act-1
2.7477,0,1.2526,8.0,60.6941,0.6365,2.0358,Act1
-2.3158,1,1.4232,8.155,444.4322,0.6666,2.0972,Act-1
3.5248,0,1.1708,7.9907,0.0,0.6351,1.8949,Act-1
4.2322,0,1.1517,7.7951,0.0,0.6351,1.8948,Act-1
2.9135,1,1.2623,8.0479,52.4265,0.6455,2.1127,Act1
2.6607,1,1.2671,7.9306,52.4265,0.6396,2.1206,Act-1
4.5847,0,1.0161,7.5856,42.6833,0.6263,2.1228,Act1
4.4299,0,1.0223,7.6495,42.6833,0.6171,2.1227,Act-1
3.6287,1,1.3045,7.6609,0.0,0.6443,2.1576,Act-1
2.6997,1,1.3195,7.5625,42.6833,0.652,2.1566,Act1
5.7458,0,1.2494,7.5808,128.05,0.6187,2.0616,Act1
4.7172,0,1.1978,7.5694,128.05,0.6227,2.0613,Act1
5.1311,0,1.1546,7.5694,128.05,0.6097,2.0637,Act1
4.3608,0,1.1521,7.6714,170.7334,0.6036,2.0651,Act-1
5.1185,0,1.1546,7.5722,128.05,0.6097,2.0636,Act1
-0.5499,0,1.2311,8.1917,136.2746,0.6343,1.9625,Act-1
2.7659,0,1.089,7.6806,0.0,0.631,1.9707,Act1
6.1666,0,1.1948,7.4694,85.3667,0.617,2.0627,Act-1
3.6687,0,1.1262,7.6667,0.0,0.6532,2.1361,Act1
1.583,0,1.0095,7.6106,75.5805,0.6134,2.0563,Act-1
3.9898,0,1.1225,7.8017,0.0,0.6394,2.144,Act-1
-0.2505,0,1.2637,8.4907,246.3139,0.6689,2.1394,Act-1
7.1668,0,1.1955,7.3362,42.6833,0.6193,2.0625,Act-1
5.2048,0,1.1531,7.5722,128.05,0.6097,2.0637,Act-1
7.1878,0,1.1566,7.3006,42.6833,0.614,2.0637,Act-1
2.1425,0,1.11,8.2204,85.3667,0.6348,2.1405,Act1
2.9969,1,1.2246,8.05,42.6833,0.6376,2.078,Act-1
4.0903,1,1.498,7.7172,32.8972,0.6806,2.0759,Act1
3.7412,1,1.5385,7.6667,36.0215,0.655,2.0677,Act1
-0.4657,0,1.0821,8.6111,75.5805,0.5861,1.9225,Act-1
3.8567,0,1.1771,7.6014,42.6833,0.6491,2.1176,Act1
5.1154,0,1.0529,7.2955,42.6833,0.6229,2.1381,Act1
1.5279,1,1.2826,7.3967,85.3667,0.6644,2.1437,Act-1
2.467,0,1.0089,7.4298,42.6833,0.6071,2.1626,Act1
1.5817,0,1.0259,8.0162,85.3667,0.6029,2.1604,Act-1
0.033,0,1.1795,8.4103,136.397,0.7088,2.0489,Act-1
-0.1991,0,1.1811,8.4778,136.2746,0.6958,2.0492,Act-1
-0.1991,0,1.1811,8.4778,136.2746,0.6958,2.0492,Act-1
0.033,0,1.1795,8.4103,136.397,0.7088,2.0489,Act-1
-0.1991,0,1.1811,8.4778,136.2746,0.6958,2.0492,Act-1
3.582,1,1.247,7.6458,0.0,0.6499,2.0766,Act1
4.5675,1,1.6352,7.9048,33.5711,0.6824,1.9799,Act1
4.0684,1,1.5902,8.1603,222.3152,0.654,1.9829,Act-1
5.3215,1,1.6141,7.923,76.2544,0.6645,2.0283,Act1
0.4791,1,1.3195,7.5486,45.8077,0.6465,2.1933,Act-1
2.5209,0,1.3392,7.5833,0.0,0.6903,1.9891,Act-1
3.4546,1,1.4204,7.9722,77.0991,0.7123,2.0578,Act1
2.2645,0,1.277,7.9167,42.6833,0.6449,2.008,Act-1
2.3877,0,1.2365,7.6944,60.6941,0.6168,2.016,Act-1
3.3128,0,1.0532,7.9359,42.6833,0.5916,1.9677,Act1
6.9406,0,1.1009,7.5101,0.0,0.6249,2.139,Act-1
3.8358,0,1.2044,7.5679,0.0,0.6828,2.0542,Act-1
2.5905,1,1.2648,7.6212,34.7963,0.6303,2.1369,Act1
1.408,0,1.169,7.8333,85.3667,0.6542,2.1472,Act-1
3.8179,0,1.1726,7.4008,42.6833,0.6434,2.18,Act-1
0.2527,0,1.11,8.119,50.9079,0.6629,1.8234,Act-1
3.0585,0,1.3352,8.0238,196.9687,0.6166,2.0619,Act-1
3.541,1,1.2994,7.7661,0.0,0.7125,2.0043,Act1
3.0089,0,1.2338,7.7989,18.0108,0.6399,2.0061,Act1
2.0173,0,1.2322,7.7632,60.6941,0.613,1.9967,Act-1
3.9738,0,1.2925,8.0222,81.7794,0.6746,1.9982,Act-1
3.7997,1,1.401,7.4206,0.0,0.6684,2.0353,Act-1
3.545,1,1.382,7.4831,18.0108,0.6898,2.045,Act-1
3.6052,1,1.2705,7.7168,0.0,0.679,2.063,Act-1
-0.1111,0,1.2185,8.2821,16.7855,0.6407,1.9708,Act-1
-0.3019,0,1.1444,8.1889,75.5805,0.6567,1.9624,Act-1
-0.1986,0,1.2739,8.466,203.6306,0.6654,2.1384,Act-1
-0.2982,0,1.2197,8.5792,68.9187,0.6606,2.0661,Act-1
1.3201,0,1.2434,8.4111,118.2639,0.745,1.9833,Act-1
5.3416,1,1.3728,8.2164,85.3667,0.8718,1.9339,Act1
-1.6563,0,1.2278,8.4792,182.0823,0.6133,2.0449,Act-1
-0.472,0,1.3324,8.9792,50.7854,0.6389,1.9583,Act1
2.4081,1,1.4001,8.0764,65.7944,0.7507,2.0224,Act1
3.1826,1,1.414,8.0744,77.0991,0.7462,2.0477,Act1
2.1382,1,1.4508,8.6019,82.1994,0.6914,2.0311,Act-1
2.4225,1,1.4608,8.4613,100.2101,0.7113,2.0352,Act1
2.8179,1,1.414,8.23,77.0991,0.7226,2.0509,Act-1
2.1914,1,1.414,8.07,109.9963,0.7134,2.0535,Act-1
5.2246,1,1.5623,8.1571,18.0108,0.7791,2.0301,Act-1
4.8688,1,1.2707,7.6345,52.807,0.7215,2.0296,Act1
3.3426,1,1.4883,8.1429,18.0108,0.7079,2.0515,Act1
3.3102,1,1.4883,8.1429,18.0108,0.7079,2.052,Act1
-0.1582,1,1.338,8.1458,242.7764,0.6314,2.1196,Act1
4.0469,1,1.4771,8.4599,50.9079,0.6828,2.0642,Act1
2.2191,1,1.5041,7.8246,0.0,0.734,2.0533,Act1
5.7592,1,1.6453,7.6004,0.0,0.7285,2.1169,Act1
4.6138,1,1.5987,7.8093,18.0108,0.7456,2.0143,Act1
3.4268,1,1.4082,7.9456,34.4157,0.7539,2.0312,Act1
3.0605,1,1.5588,7.9933,32.8972,0.7164,2.1062,Act1
3.1746,1,1.5799,7.8438,34.7963,0.7011,2.1066,Act-1
3.5133,1,1.5742,7.8131,18.0108,0.6948,2.1067,Act1
2.9382,1,1.5377,7.9598,60.6941,0.6867,2.1066,Act1
2.224,1,1.4175,8.075,51.4593,0.6923,1.9982,Act1
3.5005,1,1.4972,7.95,60.6941,0.6961,2.1299,Act1
4.6657,1,1.5486,8.2161,32.8972,0.7153,2.1689,Act1
3.5268,1,1.5049,8.1418,60.6941,0.727,2.0327,Act-1
3.0243,1,1.4021,8.5104,51.4593,0.6729,2.0032,Act-1
3.3417,1,1.5175,8.4688,34.6738,0.7059,2.0804,Act1
4.0615,1,1.5168,8.3778,16.405,0.7208,2.151,Act1
5.1398,1,1.5867,8.112,60.6941,0.7335,2.021,Act1
2.7966,1,1.4721,8.1078,128.05,0.6873,2.0281,Act-1
4.8132,1,1.292,8.1556,85.3667,0.6788,2.1215,Act-1
1.2268,0,1.238,8.7111,103.3774,0.674,2.0939,Act-1
1.5101,0,1.2153,8.0819,75.5805,0.6619,2.0428,Act1
1.6895,1,1.3847,8.4286,170.7334,0.6946,2.0623,Act1
-0.4001,1,1.3222,8.5859,298.7834,0.6531,2.0693,Act-1
2.2729,1,1.4097,8.1404,85.3667,0.7112,2.0652,Act-1
3.6251,1,1.5447,8.3047,34.4157,0.7418,2.0516,Act1
4.172,1,1.5004,8.0446,34.4157,0.7712,2.0288,Act-1
2.6759,1,1.474,8.2121,42.6833,0.7159,2.0695,Act-1
1.6952,1,1.3731,8.2556,60.6941,0.711,2.0215,Act-1
0.1356,1,1.4113,8.0802,188.7441,0.6441,2.04,Act-1
1.7168,1,1.4078,8.1285,34.4157,0.7424,2.0447,Act-1
0.9661,1,1.3737,8.1775,51.0788,0.7345,2.0093,Act-1
0.7792,1,1.3737,8.221,51.0788,0.7338,2.0088,Act-1
3.0606,1,1.4224,8.1538,34.4157,0.7457,2.0547,Act-1
3.3064,1,1.395,8.1718,34.4157,0.7745,2.0416,Act-1
3.6025,1,1.395,8.1965,34.4157,0.7442,2.0435,Act-1
3.1933,1,1.4222,8.3688,34.4157,0.763,2.0431,Act-1
2.8198,1,1.4868,8.0584,51.2013,0.7524,2.037,Act-1
4.5981,1,1.3464,8.0439,36.0215,0.7802,2.0,Act1
3.1369,1,1.4068,8.2703,77.0991,0.7446,2.0318,Act1
3.1826,1,1.414,8.0744,77.0991,0.7462,2.0477,Act1
2.8179,1,1.414,8.23,77.0991,0.7226,2.0509,Act1
1.7168,1,1.4078,8.1285,34.4157,0.7424,2.0445,Act-1
4.57,1,1.505,8.2639,18.0108,0.7208,2.0146,Act1
3.077,1,1.519,7.7387,34.7963,0.7197,2.0595,Act1
2.1873,1,1.5014,7.7281,60.6941,0.6962,2.1295,Act1
4.4289,1,1.4369,8.1111,60.6941,0.8033,1.986,Act1
4.4289,1,1.4345,8.1111,60.6941,0.8033,1.9858,Act1
1.9487,1,1.3641,8.537,60.6941,0.7202,1.9935,Act-1
2.9276,1,1.5192,8.0,54.0323,0.6937,2.0487,Act1
4.2698,1,1.6009,7.9971,42.6833,0.7918,2.0035,Act1
4.6884,1,1.5385,8.1264,34.6738,0.6927,2.0646,Act1
5.22,1,1.5667,8.0889,18.0108,0.7006,2.0725,Act1
4.3554,1,1.5385,8.1552,18.0108,0.6913,2.0669,Act1
3.0293,1,1.4816,7.7099,0.0,0.7468,2.0421,Act1
7.206,1,1.6159,8.4189,18.0108,0.7198,2.0761,Act1
3.8656,1,1.5262,8.3333,18.0108,0.7101,2.0151,Act1
6.1541,1,1.5619,8.2787,18.0108,0.7013,2.1405,Act1
6.2597,1,1.6483,8.0074,18.0108,0.7111,2.1412,Act1
5.6701,1,1.5382,8.1204,18.0108,0.727,2.1376,Act1
5.2224,1,1.4935,7.8013,0.0,0.7594,1.9933,Act1
2.4614,1,1.4169,7.941,67.3129,0.7199,2.0543,Act-1
2.6622,1,1.4169,8.0243,77.0991,0.7242,2.0506,Act-1
3.5402,1,1.4409,8.4772,18.0108,0.7332,2.0515,Act1
3.4058,1,1.5037,7.7542,16.7855,0.8037,1.9901,Act1
3.9694,1,1.5019,7.6875,60.6941,0.739,2.1291,Act-1
3.5005,1,1.5019,7.95,60.6941,0.6961,2.1299,Act1
3.9855,1,1.5497,8.1832,34.4157,0.7619,2.0442,Act1
3.4866,1,1.3044,8.0588,34.4157,0.7526,2.0392,Act1
3.7461,1,1.4559,7.8671,60.6941,0.7299,2.1267,Act1
6.7567,1,1.4193,7.5726,74.3553,0.7011,2.0532,Act-1
5.1981,1,1.4247,7.6061,74.3553,0.6924,2.046,Act1
1.8898,1,1.2949,7.9693,36.0215,0.7009,2.0521,Act1
0.7898,0,1.3299,7.9405,50.9079,0.688,2.0409,Act1
5.4013,1,1.5245,8.1065,42.6833,0.7191,2.0833,Act1
4.9031,1,1.476,7.9753,18.0108,0.7187,2.0798,Act-1
4.563,1,1.639,7.5833,34.6738,0.7237,2.1323,Act1
5.742,1,1.5625,7.5417,18.0108,0.7192,2.0807,Act1
5.0532,1,1.5922,7.9346,34.4157,0.7277,2.1243,Act1
4.1042,1,1.6003,7.7586,18.0108,0.7261,2.0146,Act1
4.9191,1,1.3871,7.6351,74.3553,0.7008,2.0201,Act1
4.7927,1,1.484,7.9753,18.0108,0.7187,2.0816,Act-1
3.2749,1,1.5761,7.6458,18.0108,0.6959,2.1064,Act-1
1.664,1,1.3987,7.5758,16.663,0.6998,1.9853,Act1
3.9855,1,1.5494,8.1832,34.4157,0.7619,2.0447,Act1
3.6251,1,1.5494,8.3047,34.4157,0.7418,2.0523,Act1
3.776,1,1.5505,8.452,34.4157,0.7405,2.0531,Act1
3.6251,1,1.546,8.3047,34.4157,0.7418,2.0522,Act1
3.8347,1,1.5483,8.0224,34.4157,0.7632,2.0457,Act1
3.0402,1,1.5693,8.0807,34.4157,0.7552,2.0537,Act1
4.156,1,1.5403,8.4216,34.4157,0.7311,2.059,Act1
3.8347,1,1.5471,8.0224,34.4157,0.7632,2.0462,Act1
3.474,1,1.5471,8.1478,34.4157,0.7432,2.0516,Act1
2.6849,1,1.5471,8.0188,67.3129,0.7345,2.0556,Act1
3.3225,1,1.5488,7.9806,34.4157,0.7446,2.051,Act1
3.8347,1,1.5522,8.0224,34.4157,0.7632,2.0442,Act1
3.474,1,1.5522,8.1478,34.4157,0.7432,2.0518,Act1
4.2488,1,1.6602,7.9044,34.4157,0.7502,2.1401,Act1
2.4135,1,1.5488,8.0139,34.4157,0.7443,2.0459,Act1
3.2998,1,1.5455,7.7933,18.0108,0.7411,2.0308,Act-1
2.0802,1,1.352,8.1667,60.6941,0.7042,1.9811,Act-1
5.1552,1,1.6257,7.875,34.4157,0.7503,2.1325,Act-1
5.699,1,1.443,8.8086,0.0,0.7183,2.0296,Act1
2.3122,1,1.4838,7.6731,34.7963,0.6847,2.0739,Act1
3.3225,1,1.5145,7.9806,34.4157,0.7446,2.0642,Act-1
4.3916,1,1.596,7.9044,34.4157,0.7502,2.1442,Act-1
4.5139,1,1.5602,7.9944,18.0108,0.7056,2.0841,Act1
4.8736,1,1.4324,7.7797,60.6941,0.735,2.1152,Act1
2.9792,1,1.3902,8.0032,34.4157,0.7211,2.0435,Act-1
4.7334,1,1.5617,7.7184,60.6941,0.6968,2.1356,Act1
6.9889,1,1.4151,7.5583,74.3553,0.6963,2.0498,Act-1
6.3858,1,1.3965,7.5509,74.3553,0.6785,2.0476,Act1
6.0402,1,1.4018,7.5667,74.3553,0.6827,2.0476,Act1
5.6526,1,1.4075,7.5833,74.3553,0.6873,2.0475,Act1
6.1403,1,1.5252,7.4949,31.672,0.7165,2.1721,Act1
2.2011,1,1.464,8.0064,60.6941,0.6909,2.0546,Act-1
6.1505,1,1.4012,7.5667,74.3553,0.6827,2.051,Act1
5.8041,1,1.4067,7.5833,74.3553,0.6873,2.0509,Act1
6.0712,1,1.4238,7.5263,49.6827,0.7032,2.0511,Act1
5.1987,1,1.4189,7.6198,74.3553,0.6981,2.0508,Act1
3.7141,1,1.5758,7.8305,32.8972,0.751,2.1331,Act-1
2.413,1,1.3776,7.875,159.722,0.6667,2.0348,Act1
4.5735,1,1.3829,7.6034,74.3553,0.67,2.0297,Act1
4.2211,1,1.3887,7.625,74.3553,0.6748,2.0293,Act1
3.4946,1,1.4019,7.5962,64.5692,0.6834,2.0283,Act1
3.6023,1,1.4019,7.6731,74.3553,0.6863,2.0278,Act1
5.9242,1,1.4752,8.4912,18.0108,0.6758,2.0366,Act1
1.8073,1,1.3835,8.2628,103.3774,0.6813,2.0889,Act-1
3.7533,1,1.5034,7.6597,18.0108,0.7356,2.0056,Act1
4.3844,1,1.5636,7.6867,18.0108,0.726,2.1281,Act1
3.0175,1,1.4141,7.8877,34.4157,0.7313,2.0506,Act1
5.0104,1,1.5474,7.5,36.0215,0.6981,2.1306,Act1
3.4096,1,1.3297,6.6667,36.0215,0.6691,2.0215,Act1
4.5949,1,1.4365,7.7731,118.2639,0.6924,2.0167,Act1
2.9759,1,1.4382,8.0402,75.5805,0.6693,2.0593,Act-1
4.7492,1,1.4291,8.5575,34.4157,0.6927,2.0505,Act1
3.8228,1,1.437,8.0203,77.0991,0.7203,2.0405,Act1
1.7655,1,1.3632,8.225,75.5805,0.7349,2.0247,Act-1
2.0547,0,1.2041,8.0789,75.2891,0.6212,2.0065,Act1
4.4959,1,1.5725,7.7153,18.0108,0.7373,2.1281,Act1
5.0003,1,1.5304,7.28,36.0215,0.7063,2.1291,Act1
2.4444,1,1.4379,8.1891,77.0991,0.7086,2.061,Act1
4.0236,1,1.4412,8.0203,77.0991,0.7203,2.0626,Act1
3.8684,1,1.2904,8.0188,18.0108,0.7354,2.0299,Act1
6.5327,1,1.4976,7.8413,42.6833,0.776,2.048,Act1
4.1269,1,1.4086,7.8111,18.0108,0.7602,1.9574,Act1
3.9105,1,1.4435,8.0528,60.6941,0.7737,1.992,Act1
2.7032,1,1.4611,8.1083,60.6941,0.7154,2.0194,Act-1
1.9194,1,1.4227,7.7708,34.7963,0.712,1.9667,Act1
3.2254,1,1.5792,7.6984,18.0108,0.7355,2.1243,Act1
4.1184,1,1.4435,7.9167,60.6941,0.8078,1.9876,Act1
3.1806,1,1.4435,8.4417,60.6941,0.7102,2.011,Act1
2.9351,1,1.448,8.193,60.6941,0.7124,2.0099,Act1
3.1524,1,1.4701,8.175,18.0108,0.714,2.0876,Act-1
2.7032,1,1.4565,8.1083,60.6941,0.7154,2.0191,Act1
2.6891,1,1.4522,7.9167,60.6941,0.7145,2.0088,Act1
2.1198,1,1.531,7.9136,144.8356,0.6723,2.0129,Act1
3.3277,1,1.5546,6.6961,32.8972,0.6964,2.1912,Act1
2.8207,1,1.5344,8.0149,34.4157,0.7497,2.1279,Act-1
5.6403,1,1.6729,7.9195,18.0108,0.7318,2.1675,Act1
4.4299,1,1.4088,8.4802,31.672,0.696,2.0735,Act1
4.951,1,1.568,8.062,18.0108,0.7449,2.1366,Act1
4.5896,1,1.568,8.2115,18.0108,0.7201,2.1388,Act1
4.7167,1,1.564,8.2115,18.0108,0.7201,2.1387,Act1
4.2371,1,1.564,8.0577,50.9079,0.7105,2.1394,Act1
3.6175,1,1.5152,8.1538,36.0215,0.7147,2.1362,Act1
6.0441,1,1.649,7.5242,18.0108,0.7493,2.136,Act-1
5.9465,1,1.649,7.5681,18.0108,0.7394,2.1366,Act1
5.5887,1,1.649,7.6935,18.0108,0.721,2.1389,Act1
4.4374,1,1.5713,8.0133,18.0108,0.7218,2.1386,Act1
4.4374,1,1.5713,8.0133,18.0108,0.7218,2.1386,Act1
4.4374,1,1.5748,8.0133,18.0108,0.7218,2.1386,Act1
6.1525,1,1.6413,8.2121,18.0108,0.7256,2.1405,Act1
6.3621,1,1.6439,7.9358,18.0108,0.7465,2.1401,Act1
6.0043,1,1.6439,8.0573,18.0108,0.7269,2.1405,Act1
6.1525,1,1.6383,8.2121,18.0108,0.7256,2.1405,Act1
6.5277,1,1.6369,8.1887,18.0108,0.7173,2.1407,Act1
5.8557,1,1.6437,7.8925,18.0108,0.7282,2.1404,Act1
6.6176,1,1.6343,8.2119,18.0108,0.7121,2.1405,Act1
5.7567,1,1.6369,8.2181,18.0108,0.7165,2.1405,Act1
5.8557,1,1.6424,7.8925,18.0108,0.7282,2.1404,Act1
4.7905,1,1.6451,7.75,18.0108,0.729,2.1403,Act1
4.323,1,1.6451,7.7833,18.0108,0.7284,2.1401,Act1
4.1663,1,1.6195,7.7759,34.6738,0.7222,2.1389,Act1
5.1605,1,1.5665,7.7022,18.0108,0.7715,2.1372,Act1
4.1332,1,1.6195,7.8046,18.0108,0.7215,2.1398,Act1
3.835,1,1.5665,7.9333,60.6941,0.7164,2.1384,Act1
5.2134,1,1.5497,8.3822,18.0108,0.7023,2.1386,Act1
4.4374,1,1.5677,8.0133,18.0108,0.7218,2.1386,Act1
5.0622,1,1.5574,8.2113,18.0108,0.7039,2.1385,Act1
4.2848,1,1.5753,7.7986,18.0108,0.7234,2.1385,Act1
3.482,1,1.6487,7.5897,34.7963,0.727,2.1405,Act1
3.3216,1,1.5489,7.6061,18.0108,0.7564,2.1307,Act1
3.1775,1,1.5489,7.6818,18.0108,0.7202,2.1322,Act1
4.4152,1,1.5586,7.9744,18.0108,0.7117,2.1369,Act1
4.457,1,1.5665,8.0533,0.0,0.7265,2.1297,Act1
4.4861,1,1.5579,8.0128,36.0215,0.7105,2.1333,Act1
2.5281,1,1.4003,8.1751,36.0215,0.7341,2.018,Act-1
1.6138,0,1.2745,8.1833,85.3667,0.7189,2.0384,Act1
4.3905,1,1.4861,8.037,18.0108,0.7445,2.0665,Act1
2.4486,1,1.3531,8.2116,75.5805,0.72,2.001,Act-1
2.5174,1,1.4245,7.9561,0.0,0.7483,2.0429,Act1
3.7473,1,1.3492,8.0111,60.6941,0.7484,2.0051,Act-1
6.201,1,1.5516,8.0493,16.405,0.8089,2.117,Act1
4.2496,1,1.5391,7.998,60.6941,0.7489,2.0303,Act1
4.4537,1,1.6216,7.7153,18.0108,0.7373,2.1288,Act1
5.5825,1,1.4885,7.6517,0.0,0.7824,1.9852,Act-1
2.6496,1,1.5518,8.1508,42.6833,0.7199,2.0177,Act1
2.3741,1,1.5545,7.7889,42.6833,0.7283,2.1774,Act1
2.767,1,1.5559,8.1597,145.9383,0.6947,2.1298,Act1
3.5919,1,1.5294,7.9792,34.4157,0.7499,2.1325,Act1
3.5648,1,1.5222,7.9454,34.4157,0.7393,2.1336,Act1
1.6588,1,1.4036,8.1285,34.4157,0.7424,2.0257,Act-1
2.5269,1,1.5217,7.8333,18.0108,0.7407,2.0284,Act1
3.2621,1,1.3894,7.8157,18.0108,0.7584,2.0199,Act1
4.486,1,1.478,8.2146,36.0215,0.6793,2.0304,Act1
3.7775,1,1.4195,8.1181,34.4157,0.7459,2.0313,Act1
2.5875,1,1.3779,8.1892,0.0,0.7694,2.049,Act1
2.317,1,1.514,7.8551,17.8882,0.7321,1.9827,Act1
4.7957,1,1.4467,8.2351,60.6941,0.7205,2.1336,Act1
3.2054,1,1.6335,7.5069,16.7855,0.7324,2.1325,Act1
2.7195,1,1.6335,7.5486,16.663,0.7317,2.1324,Act1
2.9939,1,1.5097,7.8365,51.2013,0.7332,2.0656,Act-1
4.4289,1,1.4345,8.1111,60.6941,0.8033,1.9852,Act1
4.6659,1,1.4345,7.8867,60.6941,0.8995,1.9741,Act1
1.6448,1,1.6203,7.7202,42.6833,0.6942,2.1315,Act1
4.4405,1,1.4785,8.5799,60.6941,0.6818,2.1304,Act1
3.745,1,1.4954,8.1984,60.6941,0.6942,2.13,Act1
4.0401,1,1.5632,7.962,77.0991,0.7287,2.1344,Act1
4.5412,1,1.525,8.3561,18.0108,0.6771,2.1173,Act1
4.0048,1,1.569,8.1528,18.0108,0.7572,2.0301,Act1
1.6642,1,1.4314,8.1515,78.7048,0.7295,2.0274,Act1
-1.0195,0,1.2145,8.7549,128.05,0.585,2.0104,Act-1
3.6485,1,1.5808,8.1422,34.7963,0.7118,2.0549,Act1
-1.1562,0,1.2209,8.3333,146.0608,0.628,1.9385,Act1
-0.4693,0,1.2932,8.2833,50.6629,0.6467,1.9814,Act-1
0.5465,1,1.4705,8.2614,49.3022,0.7068,2.0368,Act1
1.3529,1,1.3479,8.1637,67.6935,0.6965,2.0132,Act1
2.3812,1,1.4163,8.3175,51.4593,0.6903,1.9998,Act1
1.5489,0,1.3433,8.8636,18.0108,0.68,2.1378,Act1
-0.1618,0,1.3299,8.0119,50.9079,0.685,2.0342,Act-1
1.3231,1,1.4774,7.6905,16.7855,0.714,1.9926,Act1
2.9438,1,1.416,8.0306,18.0108,0.733,1.9819,Act1
3.4225,1,1.4401,8.3981,18.0108,0.7147,2.0604,Act1
1.5301,1,1.2239,8.1667,18.0108,0.6826,1.901,Act1
2.5183,1,1.4018,8.0877,0.0,0.8077,1.7921,Act1
4.0203,1,1.5325,7.7879,0.0,0.7471,2.0387,Act-1
-1.5563,1,1.3118,8.1491,151.1611,0.6195,2.0103,Act-1
-1.8511,1,1.289,8.2372,193.8444,0.6366,2.0078,Act-1
-1.5554,1,1.3053,8.2197,188.7441,0.612,2.0195,Act-1
0.4185,1,1.3339,7.7632,93.5913,0.6107,2.0229,Act-1
-0.3311,0,1.2982,8.2,34.7963,0.6769,1.9103,Act-1
-0.7334,0,1.2581,8.4271,246.3139,0.6433,2.1498,Act-1
4.0464,1,1.3505,7.3175,0.0,0.653,2.0393,Act-1
1.1746,1,1.3889,8.2572,60.6941,0.7025,2.0956,Act-1
-8.5866,1,1.2742,8.0473,60.6941,1.1932,2.0549,Act1
0.5987,1,1.2526,8.0476,18.0108,0.7213,2.0948,Act-1
3.694,1,1.4754,7.6566,0.0,0.7756,2.019,Act1
3.0822,1,1.4796,7.5794,0.0,0.7488,2.0254,Act-1
1.6064,1,1.2854,8.3782,18.0108,0.7279,2.0479,Act1
3.8065,1,1.3292,7.9511,60.6941,0.7562,1.9579,Act1
3.7401,1,1.265,7.6068,60.6941,0.6693,2.0933,Act1
4.1768,1,1.2723,7.4583,60.6941,0.6673,2.0934,Act1
3.2817,1,1.3197,7.9766,50.9079,0.7815,2.0117,Act1
2.545,1,1.3197,8.386,50.9079,0.7157,2.0334,Act-1
3.2817,1,1.3238,7.9766,50.9079,0.7815,2.009,Act1
2.545,1,1.3142,8.386,50.9079,0.7157,2.0331,Act1
2.7739,1,1.3168,7.8287,50.9079,0.7685,2.0199,Act1
2.046,1,1.3207,7.8235,50.9079,0.7202,2.0311,Act1
4.033,1,1.444,7.7927,50.9079,0.7324,2.0436,Act1
2.2473,1,1.4022,7.9167,85.5817,0.6749,2.052,Act1
2.9704,1,1.3921,7.85,34.6738,0.7213,2.0017,Act-1
2.1813,1,1.3783,7.8241,34.6738,0.7027,2.0006,Act-1
2.8366,1,1.5228,7.9368,42.6833,0.7,2.1096,Act1
0.6175,0,1.1037,9.1548,0.0,0.6582,2.2099,Act-1
5.1738,1,1.5075,7.9948,42.6833,0.7126,2.0734,Act1
2.6662,1,1.4722,7.7424,18.0108,0.7067,2.1281,Act1
2.3545,1,1.3509,7.6111,36.0215,0.6667,2.0705,Act1
0.3017,1,1.3255,7.9423,86.9294,0.6442,2.039,Act-1
2.9232,1,1.3802,8.043,60.6941,0.6542,2.0694,Act-1
2.712,0,1.246,7.7011,60.6941,0.7047,2.0537,Act1
1.6217,1,1.2359,7.9921,144.4992,0.6517,2.0417,Act-1
2.0269,0,1.1381,8.0021,60.6941,0.6765,2.0215,Act-1
1.1938,0,1.1168,7.8083,77.2346,0.6105,2.1106,Act-1
-0.069,0,1.182,8.4691,136.2746,0.7037,2.0434,Act1
1.6562,1,1.3298,8.0588,18.0108,0.7083,1.9896,Act1
4.0622,0,1.1378,7.5172,18.0108,0.6673,2.1798,Act1
4.9058,1,1.3341,7.6183,36.0215,0.6955,2.1784,Act1
0.7094,0,1.1993,8.2755,93.5913,0.6756,2.1071,Act-1
3.1263,1,1.537,7.9792,34.4157,0.7234,2.0583,Act1
3.1103,1,1.5146,7.7071,18.0108,0.6819,2.1064,Act1
1.6805,1,1.4262,7.82,52.807,0.6805,2.0733,Act1
3.037,1,1.3291,8.5567,34.4157,0.7235,2.0922,Act1
2.7357,0,1.2443,7.4841,0.0,0.6409,2.079,Act1
3.4893,1,1.3006,7.5049,54.0323,0.6338,2.0609,Act1
3.8721,1,1.3955,7.7094,34.7963,0.7052,2.0322,Act1
3.2531,1,1.4046,7.7005,34.7963,0.7092,2.033,Act1
1.6869,1,1.3802,7.8807,52.807,0.6917,2.0237,Act1
4.1023,1,1.3989,8.0385,18.0108,0.6846,2.0533,Act1
2.4836,1,1.398,7.7933,60.6941,0.6805,2.0505,Act1
3.2593,1,1.3117,7.9253,75.5805,0.6501,2.0901,Act-1
4.0886,1,1.3668,8.1398,59.4689,0.6761,2.0459,Act1
6.2816,1,1.3722,7.5417,74.3553,0.6875,2.0621,Act1
3.8208,1,1.5077,7.8594,60.6941,0.6815,2.1076,Act1
3.5824,1,1.5088,7.6882,60.6941,0.6827,2.1073,Act1
2.466,0,1.221,7.7183,54.0323,0.7016,1.9643,Act-1
1.6004,0,1.156,7.96,32.8972,0.6249,2.0446,Act1
3.0393,1,1.2673,7.5056,32.8972,0.6456,2.0878,Act1
0.2306,0,1.1413,7.2593,108.0645,0.5951,2.0592,Act-1
2.4173,1,1.3177,7.74,18.0108,0.6691,2.0543,Act-1
6.3244,1,1.3789,7.4769,31.672,0.6875,2.0475,Act1
4.6927,1,1.3545,7.5056,64.5692,0.6738,2.068,Act1
1.7638,1,1.4131,7.7989,101.8159,0.6507,2.074,Act1
3.3511,0,1.1332,7.537,0.0,0.663,2.0096,Act-1
2.1686,0,1.2027,7.4028,50.9079,0.6346,2.0938,Act1
1.8062,1,1.4614,8.003,93.5913,0.6895,2.0578,Act-1
1.4877,1,1.329,7.9458,75.2891,0.6688,2.0056,Act-1
2.341,0,1.2215,8.2927,75.5805,0.6732,2.0622,Act-1
2.4614,1,1.3422,8.0152,78.7048,0.6764,2.0352,Act1
3.2417,1,1.2861,7.6615,85.3667,0.6733,2.1477,Act-1
4.0639,1,1.5304,7.7667,0.0,0.7653,2.0082,Act1
1.5879,0,1.2247,8.0467,60.6941,0.6607,2.0774,Act-1
3.7487,1,1.3132,7.7196,18.0108,0.7165,1.9626,Act1
1.1764,1,1.393,7.6429,69.47,0.6478,2.057,Act1
3.0304,1,1.4077,8.3686,36.0215,0.6694,2.0767,Act1
4.4854,1,1.2537,7.4766,0.0,0.6687,2.1257,Act-1
3.7144,1,1.2537,7.5078,0.0,0.6673,2.1253,Act1
1.6431,1,1.3364,7.9568,36.0215,0.6849,2.0726,Act1
3.3232,1,1.3919,7.8472,52.6845,0.7254,2.0708,Act1
2.9611,1,1.3897,7.9861,52.6845,0.7035,2.0708,Act1
1.6037,1,1.3646,7.9452,52.6845,0.6881,2.0708,Act1
2.9611,1,1.3897,7.9861,52.6845,0.7035,2.0708,Act1
3.4249,1,1.3919,7.7986,52.6845,0.7372,2.0708,Act1
3.3232,1,1.3919,7.8472,52.6845,0.7254,2.0708,Act1
3.4895,1,1.4162,7.7173,36.0215,0.7241,2.0837,Act1
3.3467,1,1.4162,7.7173,36.0215,0.7241,2.0852,Act1
3.2457,1,1.4162,7.7659,36.0215,0.7128,2.0865,Act1
2.8212,1,1.3931,7.7438,52.6845,0.7167,2.0704,Act1
2.7188,1,1.3931,7.7942,52.6845,0.705,2.0708,Act1
4.1568,1,1.4162,7.7302,36.0215,0.7138,2.0886,Act1
3.2824,1,1.5332,7.9838,52.4265,0.7234,2.0631,Act-1
2.2182,1,1.3414,7.4286,16.7855,0.7377,1.9616,Act-1
2.8276,1,1.4045,7.5167,34.6738,0.7188,1.9666,Act1
4.0526,1,1.5357,7.8712,34.4157,0.7316,2.05,Act1
4.8198,0,1.2268,7.0238,31.672,0.6782,2.029,Act-1
1.7649,0,1.2927,7.7262,0.0,0.688,2.042,Act1
2.4157,0,1.2454,7.3571,0.0,0.7102,1.9957,Act-1
3.9103,0,1.0855,7.4504,54.0323,0.655,2.099,Act1
5.2817,0,1.0,7.0167,18.0108,0.5991,2.1072,Act1
3.71,1,1.459,7.7417,36.0215,0.6856,2.0523,Act1
3.2057,1,1.2841,7.6444,18.0108,0.668,2.0367,Act1
6.0172,1,1.3848,8.1035,59.4689,0.6583,2.0578,Act1
5.2305,1,1.5239,7.6667,59.4689,0.6968,2.0753,Act1
1.5687,0,1.1467,7.4444,18.0108,0.6097,2.0099,Act1
2.7453,1,1.5149,7.5625,49.6827,0.6792,2.0413,Act1
3.4347,1,1.5086,7.5098,16.7855,0.7179,2.0222,Act-1
4.8269,1,1.3394,8.3244,36.0215,0.6553,2.0623,Act-1
2.3173,1,1.3095,7.6739,60.6941,0.6313,2.0424,Act1
3.6325,1,1.4155,7.5944,50.9079,0.6472,2.0461,Act1
4.5076,0,1.2019,7.7427,42.6833,0.6679,2.0635,Act1
3.926,0,1.1794,7.4487,18.0108,0.6317,2.0735,Act-1
4.6974,1,1.2846,7.381,42.6833,0.6463,2.056,Act1
3.2301,1,1.3816,7.9167,34.7963,0.6536,2.0823,Act1
1.5238,0,1.2702,7.4444,18.0108,0.6591,1.9992,Act-1
3.3139,1,1.3581,7.3958,18.0108,0.6696,2.0287,Act1
2.9507,1,1.2958,7.425,18.0108,0.6694,2.0455,Act-1
2.713,1,1.3309,7.4074,36.0215,0.6543,2.0215,Act1
3.2724,0,1.0,7.0513,18.0108,0.5939,2.0701,Act1
3.22,1,1.3338,7.6167,36.0215,0.6672,2.072,Act1
6.3081,1,1.4078,8.4722,16.7855,0.6629,2.0874,Act-1
1.8813,1,1.4281,7.4815,16.7855,0.7056,2.0097,Act-1
0.9886,1,1.4281,7.7037,16.663,0.6985,2.0064,Act1
3.4281,0,1.2557,7.6406,18.0108,0.7279,2.0973,Act1
2.2209,0,1.2045,7.2619,0.0,0.6447,2.1101,Act1
3.3395,1,1.3868,7.6818,18.0108,0.7065,1.9904,Act1
2.4421,0,1.2381,7.3222,18.0108,0.6562,2.0855,Act-1
3.4741,1,1.3967,7.4286,18.0108,0.7695,2.0392,Act1
3.9407,1,1.5313,7.3846,0.0,0.7949,2.037,Act-1
2.5242,1,1.4118,7.4167,18.0108,0.686,2.1312,Act-1
2.9881,1,1.4652,7.4333,0.0,0.7248,2.1217,Act1
2.114,1,1.3265,7.4479,0.0,0.7346,1.9632,Act1
3.6518,1,1.3202,7.3235,16.405,0.7163,2.0154,Act1
3.6289,1,1.285,7.3467,36.0215,0.6464,1.9999,Act1
4.706,1,1.3572,7.9435,0.0,0.6852,2.0214,Act1
4.1334,1,1.4516,7.4275,0.0,0.6771,2.1375,Act1
2.355,1,1.3685,7.9151,52.6845,0.6922,2.0708,Act1
3.1834,1,1.3265,7.5708,16.7855,0.6661,2.0751,Act1
3.1057,1,1.33,8.0435,18.0108,0.6737,2.038,Act1
3.8855,1,1.3812,7.729,72.043,0.7145,2.0347,Act1
4.722,1,1.5369,7.6667,18.0108,0.695,2.1392,Act1
3.133,1,1.3203,7.8527,60.6941,0.6799,2.0242,Act1
3.9867,1,1.2318,7.4786,18.0108,0.6391,2.0895,Act-1
2.8712,0,1.2202,7.7063,32.8972,0.7131,2.0177,Act1
4.0725,1,1.4299,7.6505,0.0,0.7005,2.0784,Act1
4.3979,1,1.4191,8.1944,0.0,0.6697,2.0852,Act1
4.0725,1,1.4285,7.6505,0.0,0.7005,2.0787,Act1
4.3979,1,1.423,8.1944,0.0,0.6697,2.0857,Act1
3.468,1,1.4316,7.5797,0.0,0.6801,2.0812,Act1
1.6982,0,1.2483,7.918,42.6833,0.6364,2.0364,Act-1
5.0739,1,1.5311,7.6444,18.0108,0.6888,2.1406,Act-1
4.1114,1,1.438,7.596,0.0,0.7001,2.0672,Act1
3.3378,1,1.2953,7.5385,32.8972,0.6635,2.0594,Act1
2.9155,1,1.2888,7.5769,32.8972,0.6617,2.0553,Act1
4.7428,1,1.3822,7.5412,0.0,0.6806,2.154,Act1
3.6847,1,1.383,7.5167,0.0,0.6642,2.1539,Act1
2.4389,1,1.2843,7.8086,50.9079,0.6712,2.0364,Act1
3.9072,1,1.3232,7.447,42.6833,0.651,2.0709,Act1
3.6529,1,1.5286,7.6609,42.6833,0.6947,2.0577,Act-1
3.1875,1,1.3794,7.7625,59.4689,0.672,2.0346,Act-1
3.6425,1,1.4893,7.4885,33.326,0.6668,2.0525,Act-1
7.22,1,1.5211,8.1032,34.2932,0.708,2.0177,Act-1
2.5648,0,1.0,7.0196,0.0,0.6081,2.1628,Act-1
3.115,1,1.357,8.2213,77.3571,0.6779,2.0419,Act1
2.5074,1,1.391,8.0965,32.8972,0.6741,2.0867,Act1
4.4175,1,1.4338,7.4615,59.4689,0.6654,2.0647,Act1
3.5807,1,1.4241,8.092,18.0108,0.6654,2.0573,Act1
3.9004,1,1.388,7.6902,34.6738,0.6984,2.0013,Act1
3.5058,1,1.3772,7.6528,16.7855,0.6875,2.0253,Act1
1.7171,1,1.3507,7.9144,35.899,0.6837,2.0757,Act-1
1.3241,1,1.4138,7.8205,17.8882,0.7011,2.1297,Act1
4.3374,1,1.4046,7.858,36.0215,0.6755,2.0455,Act1
4.1862,1,1.4069,7.6538,36.0215,0.6769,2.0454,Act1
4.8683,1,1.3991,8.0259,36.0215,0.669,2.0483,Act1
3.8254,1,1.3795,7.4236,36.0215,0.6991,2.0406,Act1
4.4268,1,1.2669,8.408,42.6833,0.6454,2.0846,Act1
4.1064,1,1.2669,7.9306,42.6833,0.6703,2.0752,Act1
5.82,1,1.5145,8.0648,50.9079,0.6873,2.1008,Act-1
3.1043,1,1.4103,8.2806,60.6941,0.6521,2.0593,Act1
5.3838,1,1.2512,7.7881,18.0108,0.6631,2.0801,Act1
4.467,1,1.3722,7.6443,0.0,0.6875,2.1163,Act1
2.0987,1,1.3512,8.2351,50.9079,0.6803,2.1143,Act-1
3.9593,1,1.3315,7.6042,0.0,0.7525,2.0102,Act1
4.34,1,1.5219,7.5864,32.8972,0.736,2.0477,Act1
2.5945,1,1.3381,8.087,32.8972,0.6821,2.0827,Act1
3.187,1,1.3129,7.7024,32.8972,0.7244,2.0228,Act1
3.4172,1,1.3075,8.3646,32.8972,0.6756,2.0258,Act1
3.0819,1,1.3129,7.7672,32.8972,0.711,2.023,Act1
2.7162,1,1.3129,7.9524,32.8972,0.6861,2.0237,Act1
1.9088,1,1.3129,7.7619,65.7944,0.6783,2.0246,Act1
2.5945,1,1.3333,8.087,32.8972,0.6821,2.0822,Act1
3.187,1,1.3114,7.7024,32.8972,0.7244,2.0229,Act1
2.2703,1,1.3393,7.8636,32.8972,0.7025,2.0241,Act1
3.4172,1,1.3033,8.3646,32.8972,0.6756,2.0257,Act1
3.0819,1,1.3114,7.7672,32.8972,0.711,2.023,Act1
2.7162,1,1.3114,7.9524,32.8972,0.6861,2.0237,Act1
1.9088,1,1.3114,7.7619,65.7944,0.6783,2.0245,Act1
3.5071,1,1.3006,8.39,32.8972,0.6702,2.024,Act1
3.8971,1,1.4122,7.6728,32.8972,0.6964,2.0273,Act1
3.8119,1,1.405,7.6488,32.8972,0.69,2.027,Act1
2.2703,1,1.3436,7.8636,32.8972,0.7025,2.0241,Act1
2.4702,1,1.3138,7.6917,32.8972,0.6878,2.0236,Act1
2.5945,1,1.3525,8.087,32.8972,0.6821,2.0849,Act1
3.187,1,1.3177,7.7024,32.8972,0.7244,2.0227,Act-1
2.2703,1,1.3565,7.8636,32.8972,0.7025,2.0242,Act1
3.4172,1,1.32,8.3646,32.8972,0.6756,2.0263,Act1
3.9253,1,1.4532,7.6218,32.8972,0.7015,2.0568,Act1
3.0819,1,1.3177,7.7672,32.8972,0.711,2.0229,Act1
2.4589,1,1.3008,7.6594,32.8972,0.6825,2.0232,Act1
2.1455,1,1.2967,7.7153,32.8972,0.6772,2.0316,Act1
2.1797,1,1.3008,7.7464,32.8972,0.684,2.0228,Act1
3.4258,1,1.4434,7.6319,32.8972,0.7026,2.1259,Act1
2.8816,1,1.4126,7.7029,32.8972,0.6976,2.0215,Act1
1.537,1,1.3138,7.7417,32.8972,0.6859,2.023,Act1
1.0807,0,1.2067,7.8802,32.8972,0.6771,2.0516,Act1
2.6705,1,1.3129,7.9524,32.8972,0.6861,2.0213,Act1
2.2103,1,1.2953,7.6154,32.8972,0.6639,2.0416,Act1
3.1413,1,1.3114,7.7024,32.8972,0.7244,2.0213,Act1
3.0362,1,1.3114,7.7672,32.8972,0.711,2.0213,Act1
3.0908,1,1.2933,8.1967,32.8972,0.6808,2.0213,Act1
2.0998,1,1.2967,7.7153,32.8972,0.6772,2.0218,Act1
2.8062,1,1.3418,7.7462,32.8972,0.6964,2.0733,Act1
1.7732,1,1.3266,7.7533,32.8972,0.6551,2.0837,Act1
1.0388,0,1.2082,7.9653,32.8972,0.6601,2.0523,Act1
2.7297,1,1.3114,7.75,32.8972,0.7235,2.0211,Act1
2.7565,1,1.2469,7.724,0.0,0.6603,2.078,Act1
3.3923,1,1.2716,7.5673,0.0,0.6988,2.0475,Act1
4.9667,1,1.3795,7.5895,18.0108,0.7303,2.0427,Act1
5.0342,1,1.3665,7.5489,18.0108,0.7141,2.039,Act1
5.7347,1,1.3549,7.5134,18.0108,0.7012,2.0365,Act-1
3.7092,1,1.2891,7.8828,18.0108,0.6507,2.1008,Act1
3.1345,1,1.4394,7.8838,16.663,0.676,2.0558,Act1
5.2229,1,1.2863,7.6698,32.8972,0.7002,2.0844,Act1
3.702,1,1.3946,7.7333,59.4689,0.6601,2.0701,Act1
3.9768,1,1.4152,7.5641,18.0108,0.6752,2.1332,Act1
1.9092,1,1.3723,7.7586,0.0,0.6703,2.055,Act1
3.3514,1,1.3156,7.6897,18.0108,0.6521,2.066,Act1
3.9332,1,1.4158,8.0556,18.0108,0.6608,2.0769,Act1
3.4277,1,1.4229,7.7679,65.7944,0.6545,2.1248,Act1
3.2313,1,1.3099,7.4781,32.8972,0.7242,2.015,Act1
7.6197,1,1.3889,7.4264,31.672,0.6901,2.0761,Act1
3.4968,1,1.2727,7.869,18.0108,0.6584,2.0558,Act1
2.6136,0,1.2318,7.8436,18.0108,0.66,2.031,Act1
2.9657,1,1.2944,7.5409,32.8972,0.7101,2.0049,Act1
3.5909,1,1.4136,7.7471,60.6941,0.669,2.0539,Act-1
3.3587,1,1.4136,7.7471,60.6941,0.669,2.0553,Act1
2.159,0,1.1429,7.4921,18.0108,0.6296,2.0144,Act1
4.1627,1,1.5329,7.7273,85.3667,0.6753,2.1382,Act1
2.7607,0,1.3082,8.1753,0.0,0.6561,2.0426,Act1
-0.1677,0,1.303,7.9074,68.9187,0.6758,2.0236,Act-1
3.1354,1,1.4123,7.8655,95.1098,0.6889,2.0652,Act-1
2.5145,0,1.1996,8.5507,18.0108,0.652,2.0454,Act1
3.0672,1,1.3169,7.4306,18.0108,0.737,1.9889,Act1
2.8905,1,1.6161,7.598,36.0215,0.7058,2.1151,Act1
3.2677,1,1.247,7.8704,18.0108,0.6888,2.0598,Act1
3.7181,1,1.2817,8.1833,18.0108,0.6803,2.0647,Act1
3.5346,1,1.3915,7.9382,18.0108,0.7073,2.0779,Act1
3.3821,1,1.4282,7.7,42.6833,0.6838,2.1363,Act1
4.4717,1,1.3866,7.5994,0.0,0.7401,2.0416,Act1
3.7484,1,1.3592,7.6633,0.0,0.7379,2.0086,Act1
2.6549,1,1.3114,7.7341,32.8972,0.7235,2.0075,Act1
4.1715,1,1.3821,7.7531,0.0,0.7481,2.0644,Act1
5.0884,1,1.5786,7.6789,0.0,0.7336,2.1529,Act1
2.0317,1,1.4701,7.6724,0.0,0.6888,2.0868,Act1
3.4945,1,1.5448,7.8889,16.405,0.7032,2.1247,Act1
6.3193,1,1.3912,7.4509,31.672,0.6951,2.0682,Act1
3.3925,1,1.2252,7.159,32.8972,0.6695,2.0883,Act1
3.0523,1,1.2256,7.5748,42.6833,0.6543,2.0883,Act1
1.3006,0,1.3114,7.6667,60.6941,0.6352,2.0357,Act-1
3.6539,1,1.3481,8.2725,18.0108,0.6784,2.0717,Act1
1.8264,1,1.4712,7.7928,18.0108,0.6837,2.0644,Act1
5.6401,1,1.2614,7.304,18.0108,0.7175,2.1475,Act1
3.5985,1,1.3725,7.6838,50.9079,0.7282,2.1346,Act1
2.7935,1,1.3979,7.7654,50.9079,0.7204,2.1346,Act1
-1.5489,0,1.1084,8.5866,92.2745,0.6511,2.0089,Act-1
1.3157,1,1.3433,7.3958,18.0108,0.6836,2.1005,Act-1
-0.5364,0,1.2168,7.3333,18.0108,0.6282,2.1054,Act-1
4.1486,1,1.4777,7.9333,36.0215,0.6885,2.1387,Act1
2.8745,1,1.4478,7.5581,36.0215,0.6962,2.0724,Act1
3.882,1,1.3691,7.4873,34.6738,0.6984,2.1064,Act1
4.0993,1,1.4112,7.8021,95.1098,0.6986,2.0749,Act-1
4.0007,1,1.4112,7.8446,95.1098,0.6901,2.075,Act-1
4.1702,1,1.4391,7.5679,36.0215,0.6817,2.0729,Act1
4.2016,1,1.4136,7.8446,95.1098,0.6901,2.0856,Act1
3.1045,1,1.441,7.5338,36.0215,0.6882,2.0801,Act1
3.8542,1,1.3602,7.7511,16.7855,0.7144,2.0465,Act1
2.1429,1,1.3226,7.7244,32.8972,0.6508,2.0778,Act1
4.0067,1,1.3634,7.5914,18.0108,0.6858,2.0421,Act1
2.8657,1,1.293,7.7667,42.6833,0.674,2.0155,Act1
3.1697,1,1.3512,7.4691,16.7855,0.6823,2.0217,Act1
2.3755,1,1.293,7.6867,32.8972,0.6713,2.0236,Act1
2.0015,1,1.3226,7.7244,32.8972,0.6508,2.0761,Act1
1.9306,1,1.293,7.7267,32.8972,0.6694,2.0211,Act1
2.2381,1,1.3381,8.1733,17.8882,0.7388,2.0258,Act1
4.7018,1,1.4088,7.9902,34.7963,0.7124,2.0318,Act1
3.3796,1,1.409,8.5515,32.81,0.7,2.0795,Act1
3.1949,1,1.4823,7.599,18.0108,0.6997,2.0953,Act1
3.8531,1,1.3695,7.5262,18.0108,0.6752,2.0967,Act1
4.7298,1,1.4484,8.1296,18.0108,0.6923,2.0355,Act1
4.1551,1,1.3074,8.3784,36.0215,0.6807,2.0418,Act-1
1.9546,1,1.2793,7.7853,34.6738,0.6722,2.0113,Act1
3.2464,1,1.2823,8.3038,18.0108,0.6542,2.0231,Act1
1.4848,1,1.4203,7.7101,0.0,0.6795,2.0812,Act1
2.6986,1,1.4203,7.8356,0.0,0.7235,2.0711,Act1
3.7409,1,1.3937,7.8272,18.0108,0.7167,1.9849,Act1
2.8197,1,1.472,7.5937,18.0108,0.6871,2.0968,Act1
2.4139,1,1.368,7.7361,32.8972,0.6778,2.0915,Act1
2.4699,1,1.3868,7.6905,0.0,0.6861,2.1485,Act1
3.1749,1,1.5868,7.5269,34.6738,0.6889,2.1165,Act1
3.2983,1,1.3169,7.4861,0.0,0.743,1.9702,Act1
2.6662,1,1.5247,7.7051,42.6833,0.6894,2.0812,Act1
3.379,1,1.4416,7.7083,18.0108,0.712,2.1375,Act1
1.318,1,1.3117,7.94,83.8051,0.6694,2.038,Act1
1.1427,1,1.2761,7.7809,34.6738,0.6652,1.9997,Act-1
2.3944,1,1.3217,8.0744,18.0108,0.7006,2.0611,Act1
1.3744,1,1.3127,8.1601,18.0108,0.685,2.0752,Act1
3.0996,1,1.4091,8.2063,34.4157,0.7455,2.0694,Act1
1.9988,1,1.4202,7.9741,18.0108,0.712,2.0632,Act1
-0.5116,0,1.1718,8.2056,32.8972,0.6816,1.9931,Act1
2.6928,1,1.5244,7.8737,0.0,0.7083,2.1087,Act1
0.0576,0,1.0,7.2,0.0,0.594,2.1326,Act-1
2.5682,1,1.4297,7.8116,36.0215,0.6997,1.9917,Act-1
3.55,1,1.4101,7.5942,17.8882,0.7321,2.0001,Act1
6.8466,1,1.42,7.547,31.672,0.7124,2.0514,Act-1
4.5283,0,1.0882,7.5367,42.6833,0.6332,2.1498,Act1
5.2391,0,1.221,7.5313,42.6833,0.6546,2.1415,Act-1
3.247,1,1.5073,7.8238,50.9079,0.6903,2.0828,Act1
-1.0448,0,1.265,7.6722,85.3667,0.8597,2.015,Act-1
2.7497,0,1.265,7.9368,85.3667,0.6433,2.015,Act-1
3.6689,0,1.1733,7.8782,128.05,0.6207,1.9612,Act1
-4.2295,0,1.4786,8.3922,597.5668,0.6006,2.0205,Act-1
2.9602,0,1.3716,8.119,42.6833,0.7421,2.003,Act1
0.5935,1,1.3864,8.0088,151.1611,0.6536,2.0183,Act-1
1.6686,1,1.4041,7.6444,34.7963,0.6455,2.0151,Act1
3.2254,0,1.1693,7.55,0.0,0.6305,1.981,Act-1
3.5379,0,1.0635,7.6833,42.6833,0.6236,2.1504,Act1
3.0259,0,1.0667,7.7101,42.6833,0.6279,2.1357,Act-1
2.4071,0,1.062,8.0577,85.3667,0.6214,2.1458,Act-1
0.6324,1,1.2961,8.2431,203.6306,0.6507,2.1408,Act-1
3.3452,0,1.0637,7.68,42.6833,0.6236,2.15,Act1
3.6957,1,1.3915,8.0931,60.6941,0.675,2.0925,Act1
2.2848,1,1.3042,8.0642,18.0108,0.6978,2.0847,Act1
1.9969,1,1.2966,7.9861,0.0,0.6686,2.0879,Act1
1.7712,1,1.305,8.0208,18.0108,0.6803,2.0875,Act1
2.4154,1,1.3245,7.8551,32.8972,0.6825,2.0262,Act1
3.1822,1,1.5442,7.78,0.0,0.7586,2.0261,Act1
3.2592,1,1.4405,8.0333,0.0,0.72,2.0296,Act1
1.8488,1,1.3402,7.9048,60.6941,0.6295,2.0092,Act-1
3.7812,1,1.3538,7.558,0.0,0.6828,2.0704,Act1
4.1178,0,1.0671,7.5362,0.0,0.6289,2.1451,Act-1
3.2619,1,1.3095,7.5652,0.0,0.6681,2.0245,Act1
3.2922,1,1.3896,8.3333,42.6833,0.6845,2.1093,Act1
2.5427,1,1.3714,8.0652,0.0,0.6981,2.0745,Act1
6.7847,0,1.2582,7.4722,0.0,0.6116,1.9914,Act-1
2.6611,1,1.2713,7.9861,0.0,0.6778,2.0195,Act1
0.9718,0,1.19,8.1167,0.0,0.6241,2.0076,Act-1
1.0867,0,1.2304,8.0313,0.0,0.6328,2.0204,Act-1
-1.2555,0,1.1998,8.4518,292.1216,0.7331,1.9988,Act-1
-0.7025,0,1.205,8.4071,249.4382,0.7458,1.9975,Act-1
0.6892,0,1.2369,8.5,103.3774,0.6342,2.019,Act-1
-0.4467,0,1.0726,8.8889,60.6941,0.6349,1.8805,Act-1
-3.2443,0,1.096,8.7319,271.324,0.5883,2.0406,Act-1
1.8905,0,1.3308,7.8966,18.0108,0.6457,2.0251,Act1
2.4833,1,1.326,8.2344,0.0,0.7166,2.118,Act-1
2.0394,1,1.4089,7.7593,34.7963,0.6691,2.0814,Act1
4.1143,1,1.2916,7.4583,0.0,0.6549,2.1201,Act1
3.5189,1,1.3035,7.9394,0.0,0.7099,2.0461,Act1
4.695,1,1.3121,8.2643,0.0,0.6992,2.0557,Act1
2.5931,0,1.2248,7.8646,16.405,0.6541,2.0449,Act1
3.0368,1,1.5092,7.8939,0.0,0.686,2.1084,Act-1
3.0902,1,1.3114,7.6389,0.0,0.7244,2.0104,Act1
2.1332,0,1.0448,8.25,18.0108,0.7655,1.8155,Act-1
3.274,1,1.4399,7.8674,60.6941,0.7568,2.1112,Act-1
-1.1775,0,1.0782,8.9487,93.5913,0.5855,1.946,Act-1
0.8003,1,1.3191,7.9697,18.0108,0.6453,2.0697,Act-1
-0.2458,0,1.188,8.3446,206.7549,0.7594,2.0231,Act-1
0.1009,0,1.1727,8.1071,18.0108,0.75,1.8185,Act1
2.6182,1,1.3497,8.1594,34.4157,0.7147,2.056,Act1
1.7667,0,1.2438,8.0245,36.0215,0.6289,2.0294,Act-1
1.8444,1,1.366,8.05,68.9187,0.6713,2.0415,Act-1
4.6841,1,1.4139,7.7892,36.0215,0.7018,2.0398,Act1
2.0055,1,1.3161,7.8611,50.9079,0.6743,2.0259,Act-1
4.9589,1,1.5451,7.7742,36.0215,0.7063,2.1466,Act1
2.6226,1,1.3783,8.2029,18.0108,0.6739,2.0233,Act1
5.0715,1,1.5605,7.7588,18.0108,0.6919,2.0985,Act1
4.2491,1,1.5361,7.8063,18.0108,0.6881,2.0906,Act1
4.1326,1,1.4683,7.7838,36.0215,0.6785,2.101,Act1
2.053,1,1.4258,8.0432,60.6941,0.6705,2.0119,Act-1
1.1962,1,1.3262,8.2588,34.4157,0.7241,2.0347,Act-1
3.1169,1,1.5453,7.7346,18.0108,0.6947,2.1253,Act1
2.8975,1,1.435,7.6494,18.0108,0.6621,2.096,Act1
-0.36,0,1.186,8.2639,18.0108,0.6754,1.9931,Act1
2.1337,1,1.5293,8.1086,52.4265,0.747,2.0139,Act1
4.3197,1,1.5661,8.1092,36.0215,0.7029,2.1399,Act1
-0.2458,0,1.188,8.3446,206.7549,0.7594,2.0231,Act-1
2.4268,0,1.2566,8.368,78.7048,0.9177,1.9542,Act1
2.9817,0,1.2676,8.2829,60.6941,1.0178,1.9261,Act1
-1.107,0,1.2696,8.8153,60.6941,0.6861,1.9851,Act-1
1.0644,0,1.2849,8.5128,60.6941,0.6552,2.0102,Act-1
1.0641,0,1.2727,8.4048,60.6941,0.647,2.0214,Act-1
1.3857,0,1.1792,8.1417,21.1351,0.6222,2.1274,Act-1
1.0311,0,1.2809,8.2727,60.6941,0.648,1.9959,Act-1
2.6226,1,1.3783,8.2029,18.0108,0.6739,2.0233,Act-1
1.3013,1,1.3233,8.2875,34.4157,0.6754,2.0371,Act-1
2.2133,1,1.3717,8.5109,34.4157,0.6873,2.098,Act-1
2.373,0,1.3348,7.9405,60.6941,0.6726,2.0203,Act1
3.2983,1,1.3052,7.625,18.0108,0.7141,2.0252,Act1
2.4008,0,1.2502,8.3029,78.7048,0.8867,1.9646,Act-1
2.6754,1,1.5363,7.9839,36.0215,0.6856,2.1066,Act1
-0.0067,0,1.2755,8.6012,49.3022,0.6695,2.0332,Act-1
2.3967,1,1.1592,8.1106,188.7441,0.6321,2.1637,Act-1
-0.7087,0,1.0629,8.7222,0.0,0.623,1.8081,Act-1
2.9697,0,1.1057,8.0833,42.6833,0.6294,2.1462,Act1
3.9678,0,1.0663,7.7411,0.0,0.6252,2.1506,Act1
3.8292,0,1.1175,7.7708,0.0,0.6333,2.144,Act-1
3.8454,0,1.1159,7.8056,0.0,0.6568,2.1104,Act-1
3.8621,0,1.1175,7.8462,0.0,0.6508,2.134,Act1
3.0622,1,1.1789,8.0887,146.0608,0.6496,2.1644,Act1
2.2917,0,1.0087,7.4024,0.0,0.6031,2.1899,Act-1
3.8627,0,1.0089,7.4125,0.0,0.6059,2.1649,Act1
0.3236,0,1.0077,7.4302,0.0,0.5993,2.1719,Act-1
4.3016,0,1.0631,7.5867,0.0,0.6236,2.1524,Act1
3.5109,0,1.1771,7.6775,0.0,0.6489,2.1164,Act1
4.3801,0,1.0727,7.8221,85.3667,0.6145,2.1678,Act1
2.6354,1,1.3632,7.9697,32.8972,0.6764,2.0264,Act-1
1.453,0,1.2757,7.9545,0.0,0.7996,1.9271,Act-1
0.4507,0,1.123,8.1667,256.1001,0.614,2.1531,Act1
-0.6801,0,1.0943,8.5256,18.0108,0.618,1.9686,Act-1
-0.6801,0,1.0943,8.5256,18.0108,0.618,1.9686,Act-1
-0.7353,0,1.0393,8.484,0.0,0.6012,2.0212,Act-1
8.6722,0,1.1731,7.424,0.0,0.6065,2.104,Act-1
2.4935,0,1.2122,7.8712,60.6941,0.6066,2.0437,Act-1
0.1623,0,1.0267,7.9626,341.4667,0.6002,2.1565,Act-1
3.0921,0,1.2242,7.7333,0.0,0.6112,2.0451,Act-1
3.1017,0,1.032,7.7968,170.7334,0.6056,2.1568,Act-1
3.6546,1,1.2629,7.9295,0.0,0.6863,2.0457,Act1
3.7208,1,1.3574,7.9074,0.0,0.6886,2.0821,Act-1
3.4524,1,1.3352,8.0242,18.0108,0.6917,2.1008,Act-1
5.1318,0,1.2087,7.4483,0.0,0.6467,2.1457,Act-1
3.8857,0,1.1699,7.6196,42.6833,0.638,2.1343,Act1
2.1183,0,1.2824,8.0,0.0,0.6531,1.9978,Act-1
1.3712,0,1.2824,8.3636,42.6833,0.6531,1.9762,Act-1
0.7336,0,1.2988,8.6667,0.0,0.6741,1.9927,Act-1
2.0488,1,1.3742,8.4921,18.0108,0.7074,2.0013,Act1
1.4045,0,1.2988,8.5897,42.6833,0.6602,1.9939,Act-1
2.2026,0,1.1021,8.3385,85.3667,0.6256,2.1411,Act1
2.0945,0,1.1036,8.1747,85.3667,0.6266,2.14,Act1
1.9813,0,1.1053,8.2056,85.3667,0.6286,2.1405,Act-1
1.8723,0,1.107,8.0259,85.3667,0.6296,2.1394,Act-1
1.9632,0,1.0717,8.0374,42.6833,0.6296,2.1414,Act1
1.9833,0,1.0647,7.9914,85.3667,0.6215,2.1447,Act-1
2.6446,0,1.1028,8.3286,42.6833,0.6269,2.1414,Act1
2.1572,0,1.1297,7.9141,42.6833,0.6374,2.1402,Act-1
2.8704,0,1.0864,7.9792,42.6833,0.6313,2.1409,Act1
3.7763,0,1.068,7.7407,0.0,0.6271,2.1451,Act1
0.8633,0,1.2564,8.5778,36.0215,0.671,2.0127,Act-1
0.5046,1,1.3266,8.0942,32.8972,0.6232,2.029,Act-1
0.1225,0,1.0659,8.6222,0.0,0.5882,1.9,Act1
-0.2798,0,1.1916,8.3036,18.0108,0.7043,2.049,Act-1
0.709,0,1.1661,8.2885,60.6941,0.6991,2.0509,Act-1
-0.6771,0,1.1054,8.5185,75.5805,0.658,2.0422,Act-1
-0.7615,0,1.12,8.6087,60.6941,0.6722,2.0512,Act-1
-3.7384,0,1.166,8.0185,18.0108,1.0093,2.0505,Act-1
-5.4604,0,1.0955,8.3103,93.5913,0.9017,2.0538,Act-1
1.5921,0,1.155,8.1488,60.6941,0.6494,2.0208,Act-1
2.2278,0,1.222,8.3158,42.6833,0.6731,2.0243,Act1
3.2936,1,1.5023,7.7912,75.5805,0.7339,2.0001,Act1
3.0731,1,1.3845,8.2593,0.0,0.6932,2.0667,Act1
2.601,1,1.3746,8.1667,0.0,0.6973,2.0554,Act-1
-3.2451,0,1.1483,7.8686,18.0108,1.2014,2.0131,Act1
3.0641,0,1.304,8.0088,42.6833,0.6545,2.0589,Act-1
3.1006,1,1.3432,8.1389,42.6833,0.7193,1.9874,Act1
3.0035,1,1.3359,8.1389,42.6833,0.7193,2.0276,Act-1
4.753,1,1.3513,7.6667,42.6833,0.6578,2.164,Act-1
2.6645,0,1.2263,8.0185,42.6833,0.6449,2.0407,Act-1
3.6512,1,1.485,7.9532,59.4689,0.7207,2.056,Act1
4.0687,1,1.4497,7.6857,95.3679,0.6558,2.0651,Act1
3.7174,1,1.2708,7.6042,85.3667,0.6434,2.0825,Act1
3.7426,1,1.3903,7.5714,42.6833,0.6554,2.0358,Act1
3.0276,1,1.3401,7.5367,0.0,0.6549,2.0816,Act1
5.3252,1,1.6121,7.7245,0.0,0.7204,2.1785,Act1
2.8965,1,1.3402,7.8636,0.0,0.6673,2.0779,Act1
1.9861,1,1.3501,7.8088,0.0,0.6785,2.0501,Act1
1.5099,1,1.2426,7.9212,50.9079,0.6456,2.0603,Act1
5.0714,1,1.2715,7.7432,128.05,0.6486,2.1017,Act-1
1.9227,0,1.3181,7.8013,0.0,0.6354,2.0469,Act-1
4.7339,1,1.2908,7.3704,42.6833,0.6531,2.1419,Act1
-0.934,0,1.1929,7.8523,146.0608,0.6021,2.0848,Act-1
1.3007,0,1.2033,7.4881,60.6941,0.607,2.0482,Act1
-1.0292,0,1.1577,7.6786,60.6941,0.6093,2.0405,Act-1
1.8383,0,1.1338,8.0938,50.9079,0.6441,2.0352,Act-1
2.185,1,1.2863,8.107,32.8972,0.6213,2.0146,Act1
2.7291,0,1.2759,7.7402,42.6833,0.6347,2.0022,Act1
4.9261,1,1.5171,7.6313,36.0215,0.6722,2.0448,Act-1
5.2089,1,1.379,8.0495,18.0108,0.6774,2.0734,Act1
3.8409,1,1.491,7.6759,18.0108,0.6786,2.0835,Act1
5.3147,1,1.3572,7.6371,17.8882,0.6834,2.0528,Act1
4.662,1,1.4191,7.5278,0.0,0.6594,2.0926,Act1
3.5722,1,1.2868,7.72,0.0,0.6609,2.099,Act1
3.9357,1,1.4083,7.6058,52.6845,0.6618,2.0432,Act-1
4.4169,1,1.3744,7.8621,78.7048,0.6539,2.0903,Act-1
5.9629,1,1.2652,7.5095,85.3667,0.6466,2.1017,Act-1
6.3812,1,1.2878,7.388,0.0,0.6727,2.0971,Act-1
3.8545,0,1.241,7.5482,18.0108,0.6519,2.1184,Act1
4.1927,1,1.3871,7.9886,0.0,0.6615,2.1653,Act1
4.5896,1,1.5227,8.2952,49.3022,0.7072,2.0309,Act1
2.5849,1,1.3152,8.0,16.405,0.6997,2.0166,Act1
3.1462,0,1.1007,7.9242,85.3667,0.6224,2.1394,Act1
3.5085,0,1.0891,7.9737,42.6833,0.6216,2.1411,Act1
9.3668,1,1.6425,7.5714,85.3667,0.6535,2.1107,Act-1
4.0274,1,1.2693,7.4,0.0,0.6184,2.0871,Act-1
3.7821,1,1.3112,7.4094,36.0215,0.6408,2.0431,Act1
3.256,1,1.4225,7.5618,50.9079,0.6513,2.0361,Act1
3.6491,1,1.4534,7.7077,32.8972,0.688,2.0435,Act1
2.8682,1,1.2678,7.8384,129.6128,0.6369,2.1233,Act-1
2.5936,1,1.226,7.7204,121.3882,0.6395,2.0778,Act-1
2.5936,1,1.226,7.7204,121.3882,0.6395,2.0778,Act-1
4.626,0,1.1107,7.6638,60.6941,0.6223,2.1456,Act-1
1.4984,0,1.0284,7.9887,86.9294,0.604,2.0658,Act-1
2.3383,0,1.2141,7.7738,60.6941,0.6197,2.0767,Act1
2.6537,0,1.1753,7.7083,96.7156,0.6068,2.0428,Act-1
3.0444,0,1.2032,8.6306,93.5913,0.625,2.034,Act1
2.7027,0,1.2114,7.9395,93.5913,0.6581,2.0101,Act-1
1.1185,0,1.2109,8.0343,146.0608,0.6048,2.034,Act-1
2.6637,0,1.2205,7.7685,60.6941,0.6415,2.0102,Act-1
1.0463,0,1.1929,7.875,146.0608,0.6066,2.0822,Act-1
1.4294,0,1.2141,7.8214,78.7048,0.6167,2.0695,Act-1
1.6588,0,1.2562,7.912,60.6941,0.6256,1.999,Act-1
3.281,0,1.2033,7.5119,60.6941,0.6115,2.0194,Act-1
2.0077,0,1.1977,7.6413,60.6941,0.6054,2.0007,Act-1
2.3016,1,1.2931,7.8442,93.5913,0.6982,1.9586,Act1
2.6756,1,1.4623,7.9236,65.9652,0.6743,2.0875,Act1
4.041,1,1.5198,7.7672,0.0,0.7193,2.0253,Act1
3.6187,1,1.3997,7.9801,18.0108,0.6451,2.135,Act-1
1.1396,0,1.1437,8.2685,0.0,0.6815,1.9066,Act-1
5.0714,1,1.2715,7.7432,128.05,0.6486,2.1017,Act1
2.5812,1,1.4372,7.7034,77.3571,0.6681,2.0698,Act1
3.224,0,1.007,7.5208,50.9079,0.6058,2.1648,Act1
-1.593,0,1.0304,8.2917,242.7764,0.608,1.9788,Act-1
-0.8492,0,1.0448,8.7611,146.0608,0.574,1.9753,Act-1
-0.918,0,1.0248,8.4821,146.0608,0.5659,1.9762,Act-1
-1.1818,0,1.0415,8.7135,103.3774,0.5809,1.9782,Act-1
-0.599,0,1.0225,8.1818,85.3667,0.6259,2.0136,Act-1
1.9633,0,1.0,8.6042,42.6833,0.7223,1.8363,Act1
6.9506,1,1.5968,7.7141,42.6833,0.7,2.117,Act-1
-0.3128,1,1.2452,8.2725,93.5913,0.6882,2.0948,Act-1
3.103,0,1.2095,8.1142,42.6833,0.6928,1.9953,Act-1
3.5968,1,1.3221,8.0744,60.6941,0.6732,2.0308,Act1
-0.6278,0,1.0419,8.6636,75.5805,0.6185,1.8984,Act-1
0.3915,0,1.0532,8.6047,60.6941,0.6628,1.9056,Act1
8.9754,1,1.2958,7.5357,85.3667,0.6443,2.0612,Act-1
6.3893,1,1.5091,7.5825,18.0108,0.7337,2.1146,Act1
1.1692,0,1.044,7.6923,42.6833,0.6373,2.0522,Act-1
5.9809,1,1.2558,7.8218,72.043,0.6327,2.0722,Act-1
7.2889,0,1.1812,7.2902,42.6833,0.6129,2.0687,Act1
2.534,0,1.0325,7.6061,0.0,0.5968,2.0542,Act1
-0.5862,0,1.048,8.6667,75.5805,0.5643,1.9325,Act-1
-0.5713,0,1.2206,8.2333,126.4885,0.6042,1.9675,Act-1
-0.2558,0,1.2309,8.1522,83.8051,0.6089,1.9584,Act-1
2.5838,1,1.2161,7.7439,77.4796,0.6342,2.1342,Act1
3.4403,0,1.1578,7.8623,60.6941,0.6253,2.0699,Act1
2.5738,0,1.0,7.4848,42.6833,0.5829,2.0614,Act1
2.4398,1,1.2609,7.5929,32.8972,0.6317,2.1234,Act-1
2.6925,1,1.336,7.6049,0.0,0.6388,2.1073,Act1
0.0173,0,1.1841,7.6449,60.6941,0.5932,2.0311,Act-1
-0.4284,1,1.3373,7.6481,77.4796,0.6193,2.0374,Act-1
0.5703,1,1.3764,7.614,60.6941,0.6319,2.1259,Act-1
5.2955,1,1.3398,7.6442,0.0,0.6589,2.0241,Act-1
11.6359,0,1.9079,7.3833,0.0,0.6387,1.9743,Act1
5.8311,0,1.1856,7.7917,85.3667,0.6278,2.1394,Act-1
8.2884,0,1.441,7.596,0.0,0.6457,2.0796,Act-1
9.9537,0,1.3377,7.2667,0.0,0.6129,1.9959,Act1
7.8927,0,1.262,7.5,0.0,0.6118,1.9839,Act1
4.0025,0,1.2036,7.4325,42.6833,0.6325,2.1555,Act-1
5.2438,1,1.4492,7.9242,42.6833,0.6531,2.0334,Act1
3.3822,1,1.3063,8.1944,0.0,0.7073,2.0577,Act1
4.2074,1,1.3546,7.838,0.0,0.6581,2.1145,Act1
3.4744,1,1.4528,7.8958,36.0215,0.6778,2.0234,Act1
3.2694,0,1.2579,9.1184,18.0108,0.6252,2.1019,Act-1
2.0802,0,1.2375,7.8137,36.0215,0.6777,2.0017,Act-1
2.7028,0,1.2432,7.6083,18.0108,0.6721,2.0245,Act-1
2.0802,0,1.2451,7.8137,36.0215,0.6777,2.0019,Act-1
2.4035,0,1.0339,8.192,60.6941,0.5926,2.0643,Act1
5.2291,1,1.2974,7.6556,42.6833,0.628,2.0812,Act1
4.2284,0,1.0836,7.7457,42.6833,0.6257,2.1401,Act1
3.5443,1,1.2427,7.9606,18.0108,0.6674,2.0322,Act1
3.5443,1,1.2427,7.9606,18.0108,0.6674,2.0322,Act-1
0.7367,0,1.0648,8.5227,50.9079,0.64,1.9071,Act-1
3.2534,0,1.1335,7.9295,121.3882,0.6216,2.1444,Act1
-0.2007,0,1.0419,8.4815,75.5805,0.5674,1.9488,Act-1
4.3481,0,1.1362,7.4551,0.0,0.6184,2.0172,Act-1
-2.5296,1,1.2769,8.093,413.2971,0.6349,2.0437,Act-1
0.9921,0,1.1836,8.2197,136.2746,0.6131,2.0261,Act-1
0.6107,1,1.2516,8.0714,36.0215,0.652,2.0321,Act-1
1.9893,0,1.197,8.3068,36.0215,0.6786,1.9779,Act-1
1.9037,0,1.1569,8.4943,121.3882,0.6718,1.9778,Act-1
2.906,1,1.2143,7.7262,77.4796,0.6326,2.1342,Act-1
3.4145,1,1.2578,7.75,77.4796,0.6549,2.1222,Act1
3.4145,1,1.2578,7.75,77.4796,0.6549,2.1222,Act1
5.303,1,1.1633,7.875,0.0,0.614,2.0644,Act-1
3.0888,1,1.3443,7.7208,18.0108,0.6703,2.0388,Act-1
1.4487,0,1.2382,7.8631,18.0108,0.6399,1.9829,Act-1
3.4333,1,1.451,7.9012,103.2549,0.6697,2.054,Act1
2.5508,1,1.3558,7.75,65.7944,0.6315,2.0693,Act1
4.0165,1,1.3472,7.6061,18.0108,0.6469,2.037,Act1
2.6591,1,1.3631,8.0466,36.0215,0.6957,2.0634,Act-1
5.3183,1,1.525,7.7177,18.0108,0.6712,2.0843,Act1
5.9224,1,1.5417,7.638,18.0108,0.6901,2.0703,Act-1
5.0701,1,1.5385,7.7126,34.6738,0.6827,2.0728,Act1
4.7384,1,1.5385,7.7414,18.0108,0.6813,2.0742,Act1
5.5867,1,1.5514,7.6897,18.0108,0.7092,2.0665,Act1
3.9636,1,1.4241,7.6782,18.0108,0.659,2.0682,Act1
4.7768,1,1.4158,7.6222,18.0108,0.6569,2.0826,Act1
4.9185,1,1.5233,7.4635,36.0215,0.6848,2.0762,Act1
6.3217,1,1.6492,7.4798,18.0108,0.7017,2.1429,Act-1
3.1678,1,1.4083,7.5149,18.0108,0.6329,2.1097,Act1
2.172,0,1.246,7.7436,18.0108,0.6549,1.9848,Act-1
4.6431,1,1.3694,8.0407,103.3774,0.6638,2.0419,Act1
4.6431,1,1.3694,8.0407,103.3774,0.6638,2.0419,Act-1
3.9712,0,1.1948,8.0737,81.7794,0.6404,2.1629,Act1
4.2091,1,1.1963,7.6821,54.0323,0.6553,2.054,Act-1
2.2764,1,1.374,8.3662,128.05,0.6431,2.0791,Act1
1.8059,1,1.3782,8.3965,85.3667,0.6474,2.0851,Act-1
1.9924,0,1.1537,7.7019,34.6738,0.6112,2.0412,Act-1
1.3571,0,1.2822,8.0238,36.0215,0.6337,1.9683,Act1
2.5409,1,1.2596,7.4228,21.1351,0.6578,2.0797,Act-1
2.1886,1,1.2691,7.4779,21.1351,0.6348,2.1222,Act-1
3.4145,1,1.2578,7.75,77.4796,0.6549,2.1222,Act-1
2.5477,0,1.2382,7.6905,18.0108,0.6479,1.9878,Act-1
2.6244,0,1.2412,7.9778,0.0,0.6369,2.0458,Act-1
3.2952,0,1.2412,7.9111,42.6833,0.6291,2.0462,Act-1
4.0194,1,1.3173,7.6742,0.0,0.6509,2.0492,Act1
2.8635,0,1.2509,7.9524,42.6833,0.6333,2.0381,Act-1
5.4293,0,1.0594,7.5238,0.0,0.6186,2.1444,Act1
7.2107,0,1.0,7.1845,42.6833,0.6017,2.1564,Act-1
3.2553,0,1.0,7.25,18.0108,0.5714,1.9917,Act-1
4.5847,1,1.3669,7.7963,18.0108,0.6826,2.0093,Act1
3.2268,1,1.2989,8.0057,0.0,0.6398,2.0174,Act1
0.7206,0,1.0423,8.2121,78.7048,0.5921,1.9889,Act-1
0.7786,0,1.048,8.2292,0.0,0.5643,1.92,Act1
1.9592,1,1.2052,7.969,93.5913,0.6368,2.0417,Act1
2.0445,1,1.1684,7.9364,93.5913,0.6372,2.0418,Act1
1.1473,1,1.1933,8.2108,50.9079,0.6523,2.0412,Act-1
0.9016,0,1.1447,8.0667,50.9079,0.6127,2.0214,Act1
3.8651,1,1.3007,8.1509,0.0,0.6428,2.1,Act1
2.6382,1,1.4871,7.5648,32.8972,0.6644,2.1507,Act1
4.0299,1,1.4636,7.6878,18.0108,0.6918,2.0313,Act1
3.9822,1,1.4409,7.5208,36.0215,0.6837,2.0053,Act1
2.1967,0,1.2417,7.9524,32.8972,0.6291,2.0059,Act1
0.6011,0,1.0426,8.2685,0.0,0.5998,2.044,Act-1
3.3545,1,1.3006,7.6533,32.8972,0.659,2.0245,Act1
4.1612,1,1.2379,7.7097,18.0108,0.6315,2.0684,Act1
2.4337,1,1.2295,7.321,3.1243,0.6295,2.0703,Act-1
3.1923,1,1.4161,7.6402,135.0494,0.6308,2.0953,Act-1
5.0057,1,1.4401,7.5467,0.0,0.6719,2.1325,Act1
3.3414,1,1.3899,7.8643,16.405,0.6589,2.088,Act1
3.5426,1,1.3926,7.8643,16.405,0.6589,2.0881,Act-1
3.2297,1,1.336,7.7958,154.2854,0.6394,2.0491,Act1
3.2297,1,1.336,7.7958,154.2854,0.6394,2.0491,Act-1
2.5393,1,1.3386,7.7927,154.2854,0.6225,2.0491,Act1
1.1142,0,1.1998,7.7982,78.7048,0.632,2.0024,Act-1
4.0649,1,1.4822,8.0889,128.05,0.6546,2.049,Act-1
3.3513,1,1.4731,7.7214,16.405,0.6759,2.0578,Act1
4.5179,1,1.5436,7.5962,32.8972,0.6863,2.0436,Act1
2.5745,0,1.2367,8.1552,16.2825,0.719,2.0802,Act-1
4.5685,1,1.2612,7.5965,0.0,0.6682,2.0698,Act-1
2.9779,0,1.2306,8.1096,16.2825,0.7067,2.0913,Act-1
2.8399,1,1.4543,7.8157,18.0108,0.7001,2.0765,Act1
1.9163,1,1.4543,7.8611,18.0108,0.6986,2.0673,Act1
4.3282,1,1.6331,7.6912,52.6845,0.6861,2.1416,Act1
3.3531,0,1.2512,8.225,18.0108,0.6458,2.1331,Act1
1.4056,0,1.0,7.381,18.0108,0.5607,1.9418,Act1
3.5041,0,1.2229,7.3657,18.0108,0.7037,2.0107,Act1
0.6819,0,1.2156,7.9825,93.5913,0.6095,2.0156,Act-1
2.5506,1,1.3764,7.6404,60.6941,0.6382,2.1252,Act1
2.1185,1,1.4026,7.8568,51.2013,0.657,2.0685,Act-1
0.7255,0,1.2214,8.1343,77.0991,0.6283,2.0296,Act-1
1.0087,0,1.2207,8.1444,146.0608,0.6081,2.0165,Act1
2.3747,0,1.2289,7.7937,60.6941,0.647,2.0035,Act-1
2.3206,0,1.1827,7.5606,60.6941,0.6084,2.0165,Act-1
1.9976,0,1.1841,7.6667,60.6941,0.5971,2.0101,Act-1
1.5519,1,1.3373,7.6759,77.4796,0.6256,2.0226,Act-1
1.7456,0,1.1525,8.3302,74.0342,0.6367,1.9733,Act-1
2.241,1,1.3591,7.9285,46.2373,0.6472,2.0212,Act-1
2.3836,0,1.154,8.0556,0.0,0.6825,1.8863,Act-1
3.9965,0,1.2738,8.3357,128.05,0.6144,2.0067,Act1
3.954,0,1.1837,7.8011,128.05,0.6127,2.0218,Act1
2.3575,1,1.4227,7.8175,34.7963,0.6968,2.0281,Act-1
3.0394,1,1.3033,7.6806,32.8972,0.6636,2.0245,Act1
2.9937,1,1.3075,7.6806,32.8972,0.6636,2.0213,Act1
2.6611,1,1.3378,7.72,32.8972,0.6438,2.0781,Act1
3.5698,1,1.3908,7.754,0.0,0.688,2.069,Act1
1.7963,0,1.0331,8.5429,0.0,0.603,1.8517,Act-1
2.6247,1,1.3486,7.8333,34.7963,0.671,1.9918,Act1
-1.4841,0,1.0331,8.0909,32.8972,0.5582,2.0492,Act-1
4.0996,1,1.3482,8.1528,0.0,0.6598,2.0678,Act1
2.1379,1,1.363,8.0521,75.7029,0.692,1.9733,Act1
3.4163,0,1.2118,7.588,0.0,0.6283,2.0609,Act1
3.0285,1,1.2935,7.6856,32.8972,0.6487,2.0863,Act-1
4.8545,1,1.2977,7.369,18.0108,0.6438,2.0738,Act1
1.9797,0,1.0298,7.9653,42.6833,0.5788,1.9846,Act1
2.0099,1,1.3114,8.0682,188.7441,0.6381,2.0359,Act1
1.9453,1,1.3004,7.9444,146.0608,0.642,2.0297,Act-1
1.9453,1,1.3004,7.9444,146.0608,0.642,2.0297,Act-1
4.2621,1,1.3449,7.4969,18.0108,0.6866,2.033,Act1
3.0062,0,1.2175,7.4722,18.0108,0.6474,2.0233,Act1
2.7317,1,1.3026,7.8788,146.0608,0.6388,2.034,Act1
-0.2073,1,1.3126,7.9792,93.5913,0.6406,2.0713,Act-1
3.4317,1,1.2954,7.7045,103.3774,0.6394,2.041,Act1
2.3799,1,1.3126,7.9583,136.2746,0.6406,2.0409,Act-1
3.0741,0,1.1996,7.6781,42.6833,0.6332,2.033,Act-1
5.104,1,1.3341,8.05,0.0,0.6706,2.0739,Act1
3.9641,1,1.3571,7.3667,0.0,0.6878,2.066,Act1
3.3389,1,1.3571,7.4167,0.0,0.6861,2.06,Act-1
4.3558,1,1.4356,7.625,0.0,0.6796,2.0192,Act1
2.7468,1,1.2954,7.7955,103.3774,0.6388,2.0301,Act-1
2.6099,0,1.0,7.1603,32.8972,0.6065,2.1837,Act-1
1.4261,0,1.2536,7.8788,75.5805,0.6262,2.0158,Act1
2.2202,0,1.2612,7.8009,36.0215,0.6313,2.0111,Act-1
-2.6446,0,1.0648,10.1237,116.947,0.6818,1.7599,Act-1
-0.8564,1,1.247,8.0493,336.7052,0.6439,2.0423,Act-1
1.5757,0,1.2496,7.8636,42.6833,0.6295,1.9812,Act1
2.4035,0,1.0339,8.192,60.6941,0.5926,2.0643,Act-1
2.4312,1,1.1875,7.9312,50.9079,0.6607,2.049,Act-1
2.8786,0,1.2475,7.7639,18.0108,0.7054,1.9516,Act1
-0.3035,0,1.0726,8.8889,60.6941,0.6349,1.8618,Act-1
3.6182,1,1.3881,7.4167,3.1243,0.6638,2.0822,Act-1
1.7798,0,1.1513,8.0064,83.8051,0.6626,2.054,Act-1
1.4947,0,1.1513,8.2171,83.8051,0.6582,2.054,Act-1
5.1307,0,1.4309,7.6543,60.6941,0.6191,1.9563,Act1
6.0399,0,1.4413,7.6944,42.6833,0.6266,1.9525,Act-1
5.5779,0,1.3746,7.7121,42.6833,0.6217,1.9533,Act-1
2.8441,1,1.4075,7.8838,42.6833,0.6666,2.1209,Act1
2.4225,1,1.3769,7.8047,60.6941,0.6605,2.1287,Act-1
2.3524,1,1.346,8.0078,75.5805,0.6738,2.1765,Act1
2.115,1,1.3717,7.7057,85.3667,0.6701,2.1283,Act-1
1.9419,1,1.3909,7.9327,42.6833,0.6943,2.1129,Act1
1.4389,0,1.2166,8.0156,18.0108,0.6496,2.0201,Act1
2.8441,1,1.4075,7.8838,42.6833,0.6666,2.1209,Act1
2.0903,1,1.396,8.2213,42.6833,0.6889,2.1661,Act1
1.6054,1,1.3717,7.9543,85.3667,0.6649,2.1283,Act1
2.135,1,1.2504,8.0302,170.7334,0.6272,2.1464,Act-1
5.0878,1,1.3721,7.835,42.6833,0.6499,2.0832,Act1
4.5498,0,1.1353,7.9087,128.05,0.6086,2.0527,Act1
2.101,1,1.4653,8.0,190.9807,0.6288,2.022,Act-1
4.058,0,1.1667,7.7043,128.05,0.6069,2.0894,Act1
3.7298,1,1.2681,7.7477,68.9187,0.6429,2.072,Act1
3.052,1,1.2862,8.2436,18.0108,0.6886,2.0242,Act1
5.1797,1,1.5288,7.7299,60.6941,0.6968,2.1436,Act1
3.9378,1,1.5441,7.8817,34.7963,0.6939,2.0982,Act1
1.6828,1,1.324,7.66,77.4796,0.646,2.1229,Act-1
1.9898,1,1.3205,7.6346,60.6941,0.6427,2.124,Act1
0.0627,0,1.0,7.8333,121.3882,0.5604,1.9749,Act-1
4.5426,0,1.0959,7.8606,85.3667,0.6109,2.0691,Act1
4.8053,0,1.1567,7.9077,213.4167,0.6013,2.0983,Act-1
0.2804,0,1.008,8.0043,164.0715,0.6177,2.0557,Act-1
2.0799,1,1.3866,8.25,34.7963,0.639,2.0895,Act-1
-5.3132,1,1.2342,8.1888,585.3326,0.6183,2.0654,Act-1
2.7061,1,1.4459,8.3214,52.807,0.6466,2.0377,Act1
2.5584,1,1.3218,7.7227,177.7327,0.6386,2.0975,Act1
3.1213,1,1.3202,7.8153,102.1522,0.6411,2.0983,Act-1
4.9997,0,1.0431,7.2381,42.6833,0.6158,2.1381,Act1
4.3314,1,1.3196,7.8771,59.4689,0.6401,2.1139,Act1
3.9588,1,1.1228,7.7273,36.0215,0.618,2.0423,Act1
3.5216,0,1.1044,7.7433,36.0215,0.6014,2.0423,Act1
-2.185,0,1.0895,8.2319,249.4394,0.6177,2.0448,Act-1
3.9389,0,1.1868,7.7204,128.05,0.6102,2.0818,Act1
4.0701,0,1.1183,7.7644,42.6833,0.615,2.1139,Act-1
2.2088,0,1.1193,8.1056,170.7334,0.6043,2.1062,Act-1
-3.1565,0,1.0895,8.2705,300.3473,0.625,2.0393,Act-1
4.6544,1,1.3225,7.7167,85.3667,0.6496,2.0737,Act1
3.2905,1,1.4182,7.6346,78.7048,0.6366,2.0625,Act1
1.8065,0,1.2691,7.9683,121.3882,0.6276,2.0809,Act-1
2.1146,0,1.1338,7.4896,85.3667,0.6411,2.1242,Act-1
2.9321,1,1.3072,7.5,42.6833,0.6411,2.1585,Act-1
3.1409,0,1.0692,7.3922,60.6941,0.6073,2.1546,Act1
1.3741,0,1.0037,7.8638,213.4167,0.5816,2.0611,Act-1
2.5169,0,1.1023,7.8005,170.7334,0.593,2.0768,Act-1
0.7122,0,1.0994,7.9753,213.4167,0.5934,2.0649,Act1
3.6645,0,1.1082,7.6827,128.05,0.5979,2.0693,Act-1
2.5443,0,1.1011,7.96,128.05,0.5961,2.0667,Act-1
-0.1746,0,1.1222,7.7014,42.6833,0.6268,2.0953,Act-1
0.3729,0,1.2437,7.6944,42.6833,0.6132,2.0953,Act-1
1.5101,0,1.238,7.391,0.0,0.661,2.0777,Act1
2.0372,1,1.3437,7.6267,0.0,0.6448,2.1011,Act-1
2.5415,1,1.2991,7.5556,18.0108,0.6367,2.1087,Act1
2.7595,0,1.1456,7.3587,42.6833,0.6065,2.115,Act1
2.7347,0,1.0104,7.3768,0.0,0.5902,2.0828,Act-1
-0.147,0,1.1815,7.3472,0.0,0.5842,2.0951,Act1
3.2897,1,1.294,7.3043,0.0,0.6526,2.0655,Act-1
1.6643,1,1.2937,7.0,0.0,0.6734,2.0655,Act-1
1.9265,1,1.2298,7.6574,42.6833,0.6388,2.1272,Act1
1.2738,1,1.5921,7.2333,65.7944,0.716,2.2528,Act-1
2.3927,1,1.3479,7.3182,3.1243,0.6684,2.0943,Act-1
0.4274,0,1.2294,7.6373,21.1351,0.6115,2.0633,Act-1
2.2353,1,1.4816,7.6378,63.8184,0.6734,2.129,Act-1
2.9616,1,1.4724,7.4742,21.1351,0.6503,2.1929,Act-1
1.6143,1,1.3592,7.4217,37.9206,0.6355,2.1661,Act-1
-0.2996,0,1.215,7.8556,54.0323,0.6228,2.0527,Act-1
4.018,1,1.3855,7.4751,3.1243,0.6786,2.0676,Act-1
3.0466,1,1.4578,8.0096,34.4157,0.7211,2.0167,Act1
0.7414,0,1.2096,8.2593,136.2746,0.6745,2.062,Act1
2.3481,0,1.2997,7.875,42.6833,0.6449,2.0023,Act-1
2.7396,0,1.3095,7.5758,0.0,0.6532,2.0016,Act1
1.6325,1,1.3042,8.1071,57.2784,0.6824,2.0628,Act-1
2.8334,0,1.0841,7.6075,0.0,0.6304,1.9992,Act1
3.1935,1,1.1898,8.0214,60.6941,0.6807,2.0423,Act-1
-0.0112,0,1.1163,8.4633,60.6941,0.6996,2.0033,Act-1
0.6434,0,1.0317,8.1232,93.5913,0.6325,2.0606,Act1
0.4468,0,1.1531,8.2188,18.0108,0.6742,2.0065,Act-1
0.9183,0,1.0606,8.4601,0.0,0.6238,1.9923,Act1
5.6554,0,1.0589,7.6569,85.3667,0.6166,2.2007,Act1
1.7781,0,1.0536,8.1552,341.4667,0.6073,2.2013,Act-1
4.4772,0,1.0652,7.9187,0.0,0.6231,2.201,Act-1
2.9736,0,1.042,7.8333,0.0,0.6504,1.9415,Act-1
2.2317,0,1.0309,7.5909,0.0,0.6128,1.92,Act-1
-0.4076,0,1.0773,8.8111,42.6833,0.6436,1.9914,Act-1
4.9616,0,1.2175,8.7959,0.0,0.6922,1.9997,Act-1
6.3623,1,1.8064,7.8585,0.0,0.6817,2.1255,Act-1
5.3771,1,1.3398,7.8066,0.0,0.7055,2.0241,Act-1
0.3855,0,1.1014,8.2882,136.2746,0.6214,1.9322,Act-1
2.2238,0,1.0,7.4697,42.6833,0.5968,1.9321,Act-1
0.5339,0,1.1133,8.2583,0.0,0.6237,2.0259,Act-1
4.7523,1,1.3174,7.8718,60.6941,0.657,2.1269,Act-1
6.5665,1,1.4208,7.8106,51.2013,0.671,2.1086,Act-1
2.4858,0,1.2335,9.1061,18.0108,0.6392,2.0994,Act1
1.6618,0,1.0916,8.0484,85.3667,0.6266,2.1405,Act-1
1.7744,0,1.052,8.0161,85.3667,0.6189,2.1457,Act-1
1.8068,0,1.0914,8.0511,85.3667,0.6266,2.141,Act-1
3.062,0,1.052,7.9579,42.6833,0.6351,2.1461,Act-1
2.1317,0,1.0764,7.8407,0.0,0.6415,2.1256,Act-1
0.2745,0,1.1557,7.8634,78.7048,0.6048,2.0203,Act-1
1.8068,0,1.0914,8.0511,85.3667,0.6266,2.141,Act-1
0.8707,0,1.1386,8.0494,18.0108,0.6677,2.0105,Act-1
1.8576,0,1.0945,7.8826,42.6833,0.6365,1.9969,Act-1
-0.2132,0,1.0445,8.3869,75.5805,0.6473,1.982,Act-1
-0.4884,0,1.1478,8.5926,18.0108,0.6934,2.0457,Act-1
0.6189,0,1.1531,8.191,93.5913,0.6645,2.0347,Act-1
-0.2569,0,1.1103,8.3981,78.7048,0.6651,2.0407,Act-1
-0.3641,0,1.1204,8.2786,54.0323,0.6644,2.0405,Act-1
-0.4523,0,1.1481,8.4712,18.0108,0.6837,2.0354,Act-1
0.4468,0,1.1531,8.2188,18.0108,0.6742,2.0065,Act-1
0.2716,0,1.1552,8.31,136.2746,0.6597,2.0348,Act-1
-0.3993,0,1.1552,8.35,93.5913,0.6662,2.0347,Act-1
0.6604,0,1.1582,8.1848,18.0108,0.6797,2.027,Act-1
3.4524,1,1.2821,8.3182,93.5913,0.6349,2.0858,Act1
4.6635,1,1.4018,7.7065,36.0215,0.6989,2.103,Act1
5.0279,1,1.426,7.7832,0.0,0.7127,2.1025,Act1
4.735,1,1.2722,7.8565,18.0108,0.6803,2.0546,Act1
6.7694,1,1.4211,7.8106,51.2013,0.671,2.1193,Act-1
3.1849,1,1.4498,7.6577,54.0323,0.6732,2.0445,Act1
5.2515,1,1.3665,8.2325,0.0,0.646,2.0695,Act1
1.5672,0,1.0,7.8194,85.3667,0.5788,2.0613,Act1
0.6533,0,1.2625,8.7549,0.0,0.7056,2.0916,Act1
2.5804,1,1.3722,7.8851,52.807,0.6527,1.9705,Act1
1.2473,1,1.4317,7.9737,18.0108,0.7159,2.0946,Act1
0.8514,0,1.3397,8.0833,18.0108,0.7102,2.0414,Act-1
2.8022,1,1.4873,7.7564,92.0746,0.6641,2.0341,Act1
2.9297,1,1.3944,7.5909,16.7855,0.6723,2.0665,Act1
1.8798,1,1.3944,7.6212,16.7855,0.6702,2.0256,Act1
-3.121,0,1.2563,8.1806,59.4689,0.6043,2.0905,Act-1
13.3231,0,1.4318,7.3814,0.0,0.6195,2.1043,Act1
11.1873,0,1.7796,7.3208,0.0,0.6387,2.0652,Act1
5.1194,0,1.3337,7.496,42.6833,0.625,2.0646,Act1
5.1693,0,1.3669,7.7311,42.6833,0.6314,2.0646,Act1
5.1554,1,1.3446,7.7412,18.0108,0.6575,2.1178,Act1
2.5937,1,1.3461,8.0433,18.0108,0.6615,2.0539,Act1
3.3045,1,1.3185,7.8958,18.0108,0.6595,2.0614,Act1
3.6595,1,1.3132,7.8649,18.0108,0.6557,2.0545,Act1
4.3872,1,1.427,7.9722,34.4157,0.7146,2.0552,Act1
2.6851,1,1.3587,8.0399,18.0108,0.6715,2.0527,Act1
3.7572,1,1.3225,7.8488,18.0108,0.6634,2.0533,Act1
3.2746,1,1.4216,8.0403,51.2013,0.676,2.0467,Act1
4.209,1,1.3533,7.7929,18.0108,0.7017,2.0388,Act1
4.5853,1,1.5447,7.5,18.0108,0.7241,2.0722,Act1
5.8814,1,1.468,7.6199,36.0215,0.6399,2.0596,Act1
3.0082,1,1.414,7.99,77.0991,0.7144,2.0552,Act1
4.9268,1,1.4042,8.1552,18.0108,0.6714,2.0685,Act1
3.5124,1,1.3882,7.5611,0.0,0.6662,2.0825,Act1
4.1996,1,1.5119,7.4405,0.0,0.6709,2.1814,Act1
1.563,1,1.3587,8.0833,18.0108,0.6695,2.0462,Act1
3.2234,1,1.3159,7.3492,0.0,0.639,2.1005,Act1
6.1421,1,1.6286,7.7236,42.6833,0.6734,2.1252,Act1
6.4049,1,1.6376,7.6608,42.6833,0.6751,2.1252,Act1
4.0307,1,1.4829,7.7951,18.0108,0.7018,2.0084,Act1
1.7798,1,1.274,7.9806,18.0108,0.6566,2.0269,Act1
3.197,1,1.2248,7.5216,0.0,0.6397,2.1111,Act1
4.5541,1,1.2349,7.5025,0.0,0.6568,2.1222,Act1
3.0086,1,1.4752,7.7312,18.0108,0.6824,2.1219,Act1
1.8209,1,1.3712,7.9194,101.8159,0.6731,2.0077,Act-1
2.5899,1,1.51,7.6987,18.0108,0.7024,2.1056,Act1
2.8353,1,1.4262,7.8141,42.6833,0.6626,2.1401,Act-1
4.3096,1,1.5374,7.5641,18.0108,0.6863,2.1296,Act1
4.5254,1,1.5437,7.6389,18.0108,0.7131,2.127,Act1
3.8859,1,1.6231,7.5595,34.7963,0.6981,2.1286,Act1
1.6588,1,1.2838,7.7698,32.8972,0.6643,2.0216,Act1
4.8792,1,1.5202,7.6515,18.0108,0.6938,2.082,Act1
3.1427,1,1.3834,7.5064,36.0215,0.6599,2.0411,Act1
1.7398,1,1.3371,7.75,34.7963,0.6583,2.0921,Act1
2.5417,1,1.5259,8.0242,34.4157,0.7231,2.0204,Act1
4.6864,1,1.4266,8.3862,18.0108,0.6971,2.0049,Act1
2.5755,1,1.4328,8.1371,0.0,0.6809,2.0579,Act1
-2.4354,1,1.2805,7.8534,18.0108,0.9587,2.009,Act-1
4.2075,1,1.5151,7.8429,18.0108,0.7377,1.9875,Act1
-0.0578,0,1.1993,8.2431,50.9079,0.6858,2.0609,Act-1
0.9183,0,1.0757,8.1816,128.05,0.6227,2.1565,Act1
-1.0167,0,1.115,8.1367,65.7944,0.6308,1.991,Act1
2.5193,1,1.3344,8.0038,18.0108,0.7081,1.99,Act1
3.1977,0,1.3124,7.9678,35.899,0.6773,2.0476,Act1
1.3506,0,1.331,8.2767,16.405,0.7208,2.0403,Act1
1.4244,0,1.3021,7.9018,16.405,0.6894,2.0744,Act1
0.7912,0,1.3114,8.1505,16.405,0.6988,2.0812,Act1
0.6003,0,1.1401,8.1597,93.5913,0.6645,2.0602,Act-1
0.2657,0,1.2005,8.32,136.2746,0.673,2.0612,Act-1
4.6841,1,1.3474,7.9302,50.9079,0.6646,2.1206,Act1
5.7093,1,1.3219,7.8753,18.0108,0.6697,2.1129,Act-1
5.57,1,1.3408,7.8389,18.0108,0.6601,2.1177,Act1
1.4661,0,1.2348,8.2323,36.0215,0.6761,2.0408,Act1
5.1693,0,1.3669,7.7311,42.6833,0.6314,2.0646,Act-1
2.3924,1,1.4269,7.8692,70.6953,0.7278,2.0204,Act1
4.9175,1,1.4468,7.7262,54.0323,0.7122,2.0618,Act1
3.914,1,1.4437,7.7682,54.0323,0.7449,2.0522,Act1
4.3899,1,1.4949,7.7705,54.0323,0.7247,2.0127,Act1
2.7466,1,1.4239,7.842,54.0323,0.719,2.0127,Act1
3.5085,1,1.3892,7.7118,54.0323,0.6725,2.0188,Act1
4.627,1,1.428,7.9591,54.0323,0.7017,2.081,Act-1
8.694,0,1.2969,7.5202,0.0,0.6256,2.0799,Act-1
3.4072,1,1.5619,7.7356,50.9079,0.678,2.0558,Act1
4.0025,1,1.3785,8.1861,18.0108,0.6983,2.0645,Act1
4.5782,1,1.6227,8.0192,18.0108,0.6733,2.0771,Act1
5.0182,1,1.5967,8.1374,36.0215,0.6912,2.0839,Act1
4.7012,1,1.4983,7.8075,34.4157,0.749,2.0318,Act1
4.0972,1,1.5648,7.9543,49.3022,0.7092,2.147,Act1
5.1969,1,1.5702,7.7644,18.0108,0.7201,2.1465,Act1
4.8254,1,1.6106,7.6979,34.5512,0.708,2.1466,Act1
4.9312,1,1.5657,7.8182,36.0215,0.7071,2.1466,Act-1
5.1944,1,1.6106,7.6615,18.0108,0.7089,2.1469,Act-1
4.7066,1,1.5517,7.8662,18.0108,0.6966,2.147,Act1
4.9671,1,1.5827,7.818,18.0108,0.7196,2.147,Act-1
3.972,1,1.5541,7.9245,49.3022,0.7026,2.1462,Act1
4.3446,1,1.5364,7.7346,18.0108,0.6992,2.0312,Act1
5.1916,1,1.6684,7.7604,51.2013,0.707,2.1516,Act1
2.833,1,1.576,7.875,16.405,0.7012,2.1831,Act1
6.0234,1,1.4765,7.6528,18.0108,0.6996,2.0383,Act1
4.4863,1,1.3699,7.4,17.8882,0.6793,2.0545,Act1
3.7096,1,1.539,7.931,118.2639,0.6931,2.0959,Act1
3.4181,1,1.4547,7.588,18.0108,0.6663,2.0578,Act1
3.1515,1,1.2977,7.9639,34.7963,0.6505,2.0633,Act1
2.5731,1,1.4122,8.0317,51.4593,0.683,2.0164,Act1
3.5481,1,1.5289,7.6111,54.0323,0.6749,2.0739,Act1
3.8323,1,1.3692,8.0182,36.0215,0.6931,2.0634,Act1
4.039,1,1.2968,7.7537,36.0215,0.6638,2.0702,Act1
4.8287,1,1.2689,7.6687,36.0215,0.6793,2.065,Act1
6.0439,1,1.4278,8.3764,18.0108,0.706,2.0356,Act1
2.433,1,1.317,8.0208,95.1098,0.6577,2.1068,Act-1
2.8728,1,1.2991,7.9754,33.1905,0.6771,2.0152,Act1
1.5039,1,1.3311,8.3563,59.0883,0.6804,2.0869,Act1
2.2273,1,1.3325,8.0906,34.4157,0.6874,2.0793,Act1
3.6081,1,1.5161,7.987,34.4157,0.6941,2.0743,Act1
9.0439,0,1.776,7.5119,85.3667,0.635,2.0652,Act-1
3.292,1,1.4793,7.9907,42.6833,0.7054,2.0227,Act-1
4.0615,1,1.4566,8.2917,68.9187,0.6844,2.1096,Act1
2.9996,0,1.151,7.6346,18.0108,0.6262,2.0764,Act1
3.8111,1,1.5494,8.1172,34.4157,0.7337,2.0612,Act1
3.6944,1,1.4645,7.5958,18.0108,0.7114,2.0857,Act1
5.4393,1,1.4217,8.3139,42.6833,0.7102,1.9967,Act1
4.9686,1,1.3735,7.8398,36.0215,0.7106,2.0593,Act1
2.3015,1,1.2925,8.1997,34.4157,0.7381,2.008,Act1
2.7083,1,1.5582,7.8184,34.7963,0.7161,2.0532,Act1
2.9423,1,1.425,8.0345,34.4157,0.7218,2.0428,Act1
2.777,0,1.2194,7.6726,42.6833,0.6333,2.0774,Act1
4.7766,1,1.568,7.9808,18.0108,0.7117,2.1406,Act1
-0.3775,1,1.4393,7.4509,0.0,0.9545,2.0078,Act1
2.8737,1,1.3905,7.7213,54.0323,0.6909,2.022,Act-1
3.3781,1,1.4588,7.8561,42.6833,0.6785,2.0666,Act1
3.4814,1,1.4688,7.8333,42.6833,0.6927,2.0651,Act1
3.4147,1,1.4639,8.1689,0.0,0.7176,2.0032,Act-1
3.3343,1,1.3982,8.0606,34.4157,0.6959,2.03,Act1
1.723,1,1.3219,8.1442,18.0108,0.655,2.0193,Act1
2.9195,1,1.2949,7.9583,18.0108,0.6505,2.0218,Act1
6.0115,1,1.3721,7.7444,17.8882,0.7189,2.0239,Act1
4.6046,1,1.5123,7.5383,42.6833,0.6657,2.1127,Act1
1.5413,1,1.2624,7.8157,0.0,0.6522,2.0104,Act1
3.6781,1,1.3963,7.6379,18.0108,0.6976,1.9897,Act1
4.7042,1,1.4719,7.8784,18.0108,0.7124,2.0143,Act1
4.7827,1,1.5169,8.3289,18.0108,0.7352,2.0367,Act1
4.0914,1,1.5157,8.2839,18.0108,0.7015,2.0367,Act1
-0.2247,0,1.1056,8.4048,75.5805,0.6695,2.0407,Act-1
0.2657,0,1.2005,8.32,136.2746,0.673,2.0612,Act1
0.9422,0,1.2238,8.0667,16.7855,0.621,1.9047,Act1
2.1396,1,1.4238,8.1894,51.2013,0.6872,2.0345,Act1
2.1396,1,1.4275,8.1894,51.2013,0.6872,2.0347,Act1
2.1396,1,1.4384,8.1894,51.2013,0.6872,2.035,Act1
1.4381,1,1.3247,8.1821,34.7963,0.651,2.0502,Act1
2.2795,1,1.2988,8.0306,34.7963,0.6504,2.0773,Act-1
2.6345,1,1.2939,7.9973,34.7963,0.6473,2.0536,Act1
3.2324,1,1.3724,7.973,51.2013,0.6758,2.0329,Act1
1.87,1,1.3007,8.253,34.7963,0.6607,2.014,Act1
2.3816,1,1.2917,8.3833,34.7963,0.6553,2.046,Act1
3.2128,1,1.4137,8.0944,51.2013,0.7138,2.0251,Act1
2.4525,1,1.4227,8.1797,51.2013,0.6828,2.0374,Act-1
2.0536,1,1.4198,8.1742,69.212,0.6764,2.037,Act1
2.3169,1,1.4417,8.1962,51.2013,0.6976,2.0318,Act1
2.1417,1,1.4147,8.1351,51.2013,0.6853,2.0251,Act-1
1.6913,1,1.4147,8.1351,51.2013,0.6853,2.0261,Act-1
2.4572,1,1.3071,8.0268,34.7963,0.6577,2.0755,Act1
2.8137,1,1.3017,7.9914,34.7963,0.6539,2.0504,Act1
1.3375,1,1.3071,8.0982,34.7963,0.6579,2.0643,Act1
2.6224,1,1.4238,8.0995,51.2013,0.6769,2.0589,Act1
2.8918,1,1.3278,8.0222,34.7963,0.6888,1.9861,Act1
2.1874,1,1.3236,7.9683,34.7963,0.653,2.004,Act1
1.2533,1,1.3621,8.0,95.4904,0.6426,2.0017,Act1
1.7476,0,1.2633,8.0196,36.0215,0.7026,1.9811,Act1
4.0558,1,1.358,7.7816,16.7855,0.6769,2.0559,Act1
-0.349,0,1.2122,8.2979,136.397,0.6739,2.0506,Act-1
2.4224,1,1.5109,7.9975,118.2639,0.6756,2.0503,Act1
-7.6627,1,1.2326,7.8718,50.9079,1.1788,2.0451,Act-1
4.1122,1,1.5229,7.8735,54.0323,0.6774,2.0152,Act1
5.3036,1,1.4036,7.6998,0.0,0.6931,1.9931,Act1
3.5433,1,1.3996,7.6827,18.0108,0.6639,1.9932,Act1
4.6318,1,1.3993,7.5469,77.4796,0.6417,2.0884,Act1
2.4678,0,1.138,7.8565,0.0,0.6449,2.0894,Act-1
0.5146,1,1.3273,8.207,0.0,0.6673,2.1371,Act1
4.2545,1,1.4369,8.0106,60.6941,0.7562,2.0038,Act1
3.2901,1,1.4786,7.8947,42.6833,0.7456,2.1313,Act1
3.0595,1,1.3919,7.7718,52.6845,0.6971,2.0709,Act1
4.8309,1,1.3423,7.6398,16.7855,0.646,2.0838,Act1
2.3698,1,1.3583,7.6917,18.0108,0.6848,2.0084,Act1
5.7926,1,1.4849,7.6475,18.0108,0.7317,2.0206,Act1
5.3853,1,1.475,7.569,18.0108,0.7073,2.0249,Act1
3.6082,1,1.5865,7.5,16.7855,0.6972,2.16,Act1
3.7209,1,1.6049,7.4386,16.7855,0.7145,2.16,Act1
2.8155,0,1.2751,8.1957,85.3667,0.6358,2.0315,Act-1
0.3963,1,1.3875,8.0772,300.7606,0.6516,2.0544,Act1
2.0121,1,1.3599,8.1736,85.3667,0.6952,2.0034,Act1
2.3433,1,1.4673,7.8656,78.7048,0.6727,2.0852,Act1
2.0418,1,1.4823,7.8611,52.807,0.6761,2.0734,Act1
2.0376,1,1.2766,7.8382,0.0,0.6714,2.0405,Act1
2.5825,1,1.308,7.8426,18.0108,0.656,2.0407,Act1
6.2281,1,1.4319,8.1695,18.0108,0.6997,2.0453,Act1
4.0349,1,1.426,7.7024,18.0108,0.6661,2.0455,Act1
3.9377,1,1.4806,7.6583,59.3464,0.6888,2.0198,Act1
3.9825,1,1.4685,7.9086,18.0108,0.6992,2.0793,Act1
4.421,1,1.4738,7.4493,18.0108,0.6818,2.1287,Act1
4.6018,1,1.5517,8.1818,42.6833,0.6891,2.1045,Act1
4.021,1,1.3722,8.0651,36.0215,0.698,2.0709,Act1
5.0239,1,1.469,7.5255,18.0108,0.7018,2.1277,Act1
4.5754,1,1.4985,7.8081,18.0108,0.6717,2.0619,Act1
3.1229,1,1.5262,8.0957,91.9855,0.6956,2.0571,Act1
3.1813,1,1.3949,8.0057,51.2013,0.7079,2.0287,Act1
1.9516,1,1.2983,7.9549,34.7963,0.664,2.014,Act1
2.3129,1,1.2921,7.9167,34.7963,0.6592,2.0447,Act1
5.4036,1,1.3921,7.5422,0.0,0.702,2.0063,Act1
4.8006,1,1.3944,7.4699,0.0,0.683,2.0159,Act1
4.3205,1,1.4127,7.7756,0.0,0.6602,2.0994,Act1
4.9023,1,1.393,7.4132,0.0,0.6939,2.0132,Act1
3.9898,1,1.4175,7.5667,0.0,0.6765,2.0324,Act1
5.3902,1,1.3866,7.3673,0.0,0.6477,2.0646,Act1
5.126,1,1.3866,8.034,0.0,0.6552,2.0422,Act1
4.8006,1,1.393,7.4699,0.0,0.683,2.0166,Act1
4.4385,1,1.393,7.6319,0.0,0.6625,2.028,Act1
4.0962,1,1.391,7.4467,0.0,0.6549,2.0306,Act1
3.7049,1,1.3687,7.4733,17.8882,0.6804,2.0305,Act1
3.9898,1,1.4214,7.5667,0.0,0.6765,2.0326,Act1
5.126,1,1.3904,8.034,0.0,0.6552,2.0428,Act1
4.1962,1,1.3947,7.3913,0.0,0.6639,2.0268,Act1
5.127,1,1.5183,7.3827,0.0,0.6792,2.1449,Act1
3.271,1,1.3947,7.4348,0.0,0.6618,2.0169,Act1
2.9642,1,1.5234,7.9919,34.4157,0.7238,2.0192,Act1
4.486,1,1.5812,7.8969,34.4157,0.7001,2.1549,Act1
5.0518,1,1.572,7.2778,101.8159,0.6934,2.1432,Act-1
4.8582,1,1.488,7.7071,18.0108,0.7364,2.1358,Act1
5.1667,1,1.5308,7.6149,0.0,0.6769,2.0658,Act-1
3.7731,1,1.4268,7.7153,36.0215,0.6899,2.0233,Act1
2.6938,1,1.4028,8.0651,52.4265,0.6941,2.0945,Act1
6.6761,1,1.5547,7.6954,42.6833,0.6714,2.0709,Act1
3.383,1,1.4435,7.8417,60.6941,0.6927,2.0364,Act1
4.5817,1,1.4926,7.7333,36.0215,0.6736,2.1078,Act1
4.8866,1,1.4686,7.7162,18.0108,0.7074,2.0253,Act1
3.9561,1,1.2734,7.7258,60.6941,0.6458,2.0996,Act-1
2.8182,1,1.3129,7.6667,32.8972,0.6803,2.0254,Act1
3.5715,1,1.5386,7.6014,0.0,0.7604,2.0224,Act1
5.4436,1,1.4471,7.6369,18.0108,0.7005,2.035,Act1
1.9807,1,1.405,7.5873,34.7963,0.6747,2.0049,Act1
2.684,1,1.374,7.9167,59.4689,0.6511,2.0323,Act1
3.6531,1,1.4115,7.87,32.8972,0.7117,2.0382,Act1
4.7118,1,1.3154,7.8418,0.0,0.7182,2.0508,Act1
3.0782,1,1.3047,7.375,0.0,0.6554,2.0738,Act1
4.2072,1,1.5196,8.1944,18.0108,0.7566,2.0534,Act1
3.2158,1,1.4375,7.85,0.0,0.7024,2.0407,Act-1
1.3391,1,1.3994,8.1823,0.0,0.6871,2.0386,Act1
3.999,1,1.4228,7.5833,0.0,0.7039,2.0834,Act1
4.3657,1,1.4165,7.5481,0.0,0.6637,2.0912,Act1
4.6641,1,1.4109,7.5247,0.0,0.6594,2.0908,Act1
4.4117,1,1.4059,8.1637,0.0,0.6645,2.0879,Act-1
3.8087,1,1.4299,7.5625,0.0,0.6739,2.0852,Act1
4.1652,1,1.4227,7.54,0.0,0.6685,2.0785,Act1
4.6848,1,1.3978,7.6774,18.0108,0.7288,2.0329,Act1
3.8875,1,1.2701,7.5611,42.6833,0.6404,2.0844,Act1
4.809,1,1.4321,7.8012,54.0323,0.6973,2.0792,Act1
3.4291,1,1.4297,7.7391,36.0215,0.6976,2.0051,Act1
5.3087,1,1.5281,7.2756,36.0215,0.6984,2.1298,Act1
3.6015,1,1.4972,7.65,60.6941,0.6888,2.1303,Act1
3.6603,1,1.5483,7.9543,34.4157,0.7349,2.0585,Act1
3.2108,1,1.3634,7.8889,60.6941,0.6715,2.1053,Act-1
4.1284,1,1.3222,7.9053,18.0108,0.6922,2.1077,Act1
4.2463,1,1.2919,7.7778,18.0108,0.696,2.0553,Act1
3.8838,1,1.2919,7.9333,18.0108,0.6755,2.0603,Act1
3.5223,1,1.3148,7.8526,18.0108,0.674,2.1071,Act1
3.847,1,1.2866,7.9444,18.0108,0.6656,2.0608,Act1
5.538,1,1.3963,8.4619,18.0108,0.6728,2.1519,Act1
4.6226,1,1.4099,8.0403,18.0108,0.6812,2.146,Act1
4.3316,1,1.2866,8.108,18.0108,0.6687,2.0667,Act1
4.002,1,1.2866,8.1451,18.0108,0.6668,2.0597,Act1
3.1672,1,1.3884,7.5256,18.0108,0.71,2.0648,Act1
3.8592,1,1.2827,8.1451,18.0108,0.6668,2.0593,Act1
3.3863,1,1.2866,8.1821,18.0108,0.6649,2.0537,Act1
4.2849,1,1.2766,8.0685,18.0108,0.6639,2.0603,Act1
3.516,1,1.521,7.9866,34.4157,0.6976,2.0572,Act1
3.5358,1,1.3914,7.4615,0.0,0.6577,2.0839,Act1
3.9671,1,1.4385,7.6852,18.0108,0.6826,2.044,Act1
3.1206,1,1.2748,7.8013,18.0108,0.6429,2.0718,Act1
3.7003,1,1.3679,8.1763,32.8972,0.6455,2.0729,Act1
4.0935,1,1.2885,8.1571,36.0215,0.6741,2.0202,Act1
4.8576,1,1.2866,8.1186,18.0108,0.6759,2.077,Act1
4.3194,1,1.2802,8.1142,36.0215,0.6687,2.0615,Act1
4.1839,1,1.3072,8.4109,18.0108,0.67,2.1209,Act1
4.1908,1,1.2839,8.2233,18.0108,0.6918,2.0511,Act1
4.3356,1,1.2885,7.6412,18.0108,0.7257,2.0486,Act1
4.0596,1,1.2826,8.1442,18.0108,0.6741,2.0653,Act1
2.5604,1,1.2895,7.5652,50.9079,0.6765,2.0621,Act1
4.0596,1,1.2866,8.1442,18.0108,0.6741,2.0659,Act1
3.7284,1,1.2866,8.1827,18.0108,0.6723,2.0585,Act1
4.0596,1,1.2985,8.1442,18.0108,0.6741,2.068,Act1
4.3477,1,1.4577,7.744,103.3774,0.6894,2.1416,Act1
3.6143,1,1.4646,7.7391,36.0215,0.7101,2.01,Act1
2.7248,1,1.4765,7.8485,18.0108,0.7023,2.0774,Act1
2.7879,1,1.4302,7.7639,50.9079,0.6899,2.015,Act1
5.1305,1,1.4145,8.0361,18.0108,0.6882,2.1304,Act1
3.1575,1,1.5457,7.6159,34.6738,0.7049,2.1323,Act1
4.1379,1,1.3984,8.0267,36.0215,0.7244,2.0288,Act-1
3.8604,1,1.5162,7.8889,36.0215,0.6911,2.122,Act1
3.7366,1,1.3946,8.1597,34.4157,0.7332,2.0444,Act1
3.9807,1,1.3874,8.1197,16.405,0.7237,2.0514,Act1
3.8296,1,1.3946,8.1597,34.4157,0.7332,2.0436,Act-1
3.4675,1,1.3946,8.2986,34.4157,0.7118,2.0449,Act1
2.5819,1,1.4101,8.0586,77.0991,0.6745,2.0531,Act1
4.4273,1,1.3996,7.9928,34.4157,0.7235,2.0463,Act1
2.1498,0,1.3314,8.141,0.0,0.7121,2.0636,Act-1
1.4059,0,1.3316,8.053,35.899,0.6696,2.0023,Act-1
8.976,0,1.776,7.5159,85.3667,0.635,2.0675,Act1
5.4213,1,1.6183,7.8462,0.0,0.7448,2.0736,Act1
3.7125,1,1.4123,7.6556,18.0108,0.6646,2.0741,Act1
1.8335,0,1.324,8.0079,35.899,0.676,2.0144,Act-1
3.462,0,1.2952,7.5833,17.8882,0.6723,2.0483,Act1
2.6581,1,1.4193,7.8908,50.9079,0.6409,2.0415,Act1
2.817,1,1.443,7.9178,75.5805,0.6791,2.0405,Act1
2.6009,1,1.443,8.0733,75.5805,0.6582,2.0406,Act1
5.9282,1,1.3973,7.9083,0.0,0.6795,2.0717,Act1
3.9967,1,1.5447,7.9297,34.4157,0.7264,2.0581,Act1
4.9054,1,1.5447,7.8984,34.4157,0.727,2.062,Act1
3.5715,1,1.5371,7.6014,0.0,0.7604,2.0221,Act1
3.6567,1,1.5104,7.7692,0.0,0.68,2.0049,Act1
3.1996,1,1.3835,7.8437,36.0215,0.7016,2.0197,Act1
2.4383,1,1.3418,7.7121,32.8972,0.6564,2.0797,Act1
4.2724,1,1.5119,7.6696,18.0108,0.7217,2.1364,Act1
4.9621,1,1.4492,7.5385,18.0108,0.6768,2.1459,Act1
4.303,1,1.5473,7.9247,78.7048,0.6956,2.1376,Act-1
3.3854,1,1.4534,7.6071,32.8972,0.659,2.0476,Act1
2.3598,1,1.3114,7.7143,32.8972,0.6783,2.0212,Act1
2.7043,1,1.3698,7.7569,18.0108,0.7148,2.0197,Act1
3.5565,1,1.3343,7.6494,18.0108,0.6734,2.0533,Act1
4.4725,1,1.4569,7.5811,18.0108,0.6564,2.0763,Act1
3.9366,1,1.3441,7.8611,0.0,0.7313,2.0286,Act1
4.0897,1,1.3878,7.8305,42.6833,0.6874,2.0303,Act1
3.6875,1,1.391,7.6667,16.7855,0.6671,2.0555,Act1
5.3505,1,1.5569,7.6264,36.0215,0.7194,2.0488,Act1
3.702,1,1.4594,7.4545,34.6738,0.6714,2.032,Act1
2.9228,1,1.2969,7.6131,42.6833,0.6593,2.0457,Act1
3.485,1,1.3069,7.619,18.0108,0.6854,2.0017,Act1
3.9885,1,1.4062,7.7981,0.0,0.6929,2.0669,Act1
4.6109,1,1.4069,7.6768,34.7963,0.6474,2.0675,Act1
3.7644,1,1.3961,7.899,18.0108,0.6653,2.0322,Act1
4.7137,1,1.4675,7.5571,18.0108,0.6625,2.0776,Act1
4.5369,1,1.393,7.3819,0.0,0.6591,2.0405,Act1
3.8043,1,1.5759,7.8782,60.6941,0.7011,2.0711,Act-1
3.1174,1,1.4637,8.0031,34.4157,0.6983,2.0646,Act1
5.3259,1,1.4273,7.7688,54.0323,0.7011,2.0908,Act-1
2.7359,1,1.4762,7.6979,50.9079,0.694,2.0639,Act1
5.1206,1,1.5179,7.6317,18.0108,0.7028,2.0421,Act1
4.5228,1,1.4102,7.5278,18.0108,0.6489,2.0463,Act1
3.8288,1,1.4102,7.55,18.0108,0.6472,2.0433,Act1
2.8313,1,1.3663,8.1121,36.0215,0.713,2.0526,Act1
5.0476,1,1.5735,7.8712,18.0108,0.7455,2.0782,Act1
2.9723,1,1.2461,7.8173,0.0,0.6934,2.074,Act1
5.1789,1,1.5387,7.9219,34.4157,0.7624,2.0569,Act1
4.9054,1,1.5387,7.8984,34.4157,0.727,2.0676,Act-1
4.7203,1,1.5387,8.0859,34.4157,0.7341,2.0624,Act1
5.497,1,1.5097,8.375,34.4157,0.7184,2.0634,Act-1
4.1106,1,1.5471,7.9543,34.4157,0.7349,2.057,Act1
2.493,1,1.4882,8.1458,34.4157,0.7182,2.0637,Act1
3.7899,1,1.6431,7.9024,51.2013,0.7166,2.0651,Act1
2.6514,1,1.534,8.0027,34.4157,0.7064,2.0665,Act-1
2.4644,1,1.4381,7.9089,34.4157,0.6804,2.0704,Act1
2.5289,1,1.5145,8.1714,50.8207,0.7328,2.0672,Act-1
2.7767,1,1.4661,8.0353,34.4157,0.706,2.0632,Act1
3.7123,1,1.5907,7.9417,34.4157,0.7167,2.1351,Act1
4.332,1,1.5431,7.9066,34.4157,0.7188,2.0582,Act1
4.6808,1,1.5431,8.0345,34.4157,0.7699,2.0581,Act1
3.8111,1,1.546,8.1172,34.4157,0.7337,2.0581,Act1
4.1555,1,1.5172,7.9624,34.4157,0.788,2.058,Act-1
5.0675,1,1.6342,7.8626,34.4157,0.7379,2.0587,Act1
4.1711,1,1.5447,7.9957,34.4157,0.7524,2.0581,Act1
3.8111,1,1.5447,8.1172,34.4157,0.7337,2.0581,Act1
3.4798,1,1.542,7.9621,34.4157,0.7213,2.0581,Act1
4.8737,1,1.6271,7.8925,34.4157,0.7331,2.0581,Act1
4.1711,1,1.5502,7.9957,34.4157,0.7524,2.0581,Act1
3.8111,1,1.5502,8.1172,34.4157,0.7337,2.0581,Act1
2.9493,1,1.5175,8.0194,34.4157,0.7327,2.058,Act1
2.7527,1,1.5471,7.9866,34.4157,0.7345,2.0581,Act1
4.7369,1,1.5252,7.8262,34.4157,0.7169,2.0827,Act1
3.9772,1,1.6281,7.9387,34.4157,0.7397,2.058,Act-1
2.7527,1,1.5471,7.9866,34.4157,0.7345,2.0581,Act1
3.8265,1,1.6281,7.9191,34.4157,0.7628,2.058,Act1
3.2998,1,1.4245,7.9224,34.4157,0.7097,2.0583,Act1
3.2585,1,1.5566,7.9856,34.4157,0.7389,2.0581,Act-1
2.658,1,1.4574,7.9969,34.4157,0.6983,2.0621,Act1
2.8536,1,1.4492,7.9613,34.4157,0.6914,2.0615,Act1
3.6603,1,1.5471,7.9543,34.4157,0.7349,2.0583,Act-1
5.5882,1,1.5306,8.0042,34.4157,0.7697,2.0547,Act1
4.202,1,1.5159,7.9405,34.4157,0.7103,2.0647,Act1
5.0798,1,1.511,7.9644,34.4157,0.7525,2.0601,Act1
5.0798,1,1.5149,7.9644,34.4157,0.7525,2.0551,Act-1
4.3466,1,1.5625,7.9141,34.4157,0.7147,2.0724,Act1
4.7918,1,1.5383,7.8984,34.4157,0.727,2.0619,Act1
4.1102,1,1.5471,7.9758,34.4157,0.7115,2.0625,Act1
5.0798,1,1.5447,7.9644,34.4157,0.7525,2.0619,Act1
4.3849,1,1.542,7.9318,34.4157,0.7219,2.062,Act-1
4.5701,1,1.5471,7.922,34.4157,0.7353,2.0619,Act1
3.8895,1,1.5625,7.9453,34.4157,0.7139,2.0698,Act1
4.0645,1,1.5471,7.9758,34.4157,0.7115,2.0626,Act1
2.9842,1,1.436,8.05,34.4157,0.7311,2.0619,Act1
4.3879,1,1.5625,7.9453,34.4157,0.7139,2.0699,Act1
4.1056,1,1.5042,7.9387,34.4157,0.7297,2.0561,Act1
4.1106,1,1.5221,7.9543,34.4157,0.7349,2.0557,Act1
2.6903,0,1.2036,7.8284,16.405,0.6504,2.0683,Act1
2.6931,1,1.3496,7.9398,16.405,0.6937,2.0519,Act1
3.0892,1,1.4002,7.9722,34.4157,0.7123,2.0414,Act1
3.5934,1,1.3636,8.0856,162.8463,0.6578,2.0608,Act-1
2.5881,1,1.3769,7.9583,42.6833,0.6718,2.0368,Act1
3.0884,1,1.2525,7.7071,0.0,0.6569,2.0806,Act1
4.049,1,1.4068,7.75,18.0108,0.7026,2.027,Act1
4.8336,1,1.4756,7.7361,18.0108,0.7135,2.0271,Act1
5.1695,1,1.4775,7.7037,18.0108,0.701,2.0272,Act1
5.3643,1,1.4764,7.6814,18.0108,0.711,2.0271,Act1
4.8356,1,1.4692,7.6974,18.0108,0.7018,2.0389,Act1
6.2612,1,1.5861,7.6447,18.0108,0.7186,2.1323,Act-1
4.7609,1,1.5065,7.7255,18.0108,0.6991,2.0532,Act-1
4.1776,1,1.3643,7.6263,18.0108,0.6746,2.0292,Act1
5.1352,1,1.3208,7.6849,36.0215,0.6723,2.0358,Act1
4.4735,1,1.3766,7.7284,18.0108,0.7111,2.0914,Act1
3.4588,1,1.376,7.5774,18.0108,0.6604,2.0978,Act1
5.6828,1,1.649,7.5,18.0108,0.7146,2.1409,Act1
5.081,1,1.5411,7.4792,18.0108,0.7316,2.1372,Act1
3.9597,1,1.4679,7.5307,16.7855,0.7685,2.0029,Act1
3.5845,1,1.2952,8.391,0.0,0.6665,2.0911,Act1
2.9381,1,1.4191,8.0694,51.2013,0.6811,2.0371,Act1
5.4878,1,1.4425,7.75,18.0108,0.7226,2.0709,Act-1
4.392,1,1.3152,8.1177,114.7263,0.6636,2.0475,Act-1
2.8648,1,1.3306,7.7813,36.0215,0.7115,2.0149,Act1
3.5597,0,1.1437,7.6801,18.0108,0.6248,2.0882,Act-1
3.6603,1,1.5522,7.9543,34.4157,0.7349,2.0605,Act1
4.8652,1,1.5467,7.4808,18.0108,0.6849,2.0921,Act1
4.2548,1,1.5543,7.7569,18.0108,0.7059,2.0887,Act1
4.6202,1,1.4803,7.7323,60.6941,0.6677,2.0683,Act1
3.8853,1,1.4594,7.7667,60.6941,0.6705,2.068,Act1
3.6669,1,1.4008,7.8077,18.0108,0.6961,2.0226,Act1
3.7328,1,1.5098,7.4136,16.7855,0.6776,2.0826,Act1
4.5416,1,1.5227,7.7815,18.0108,0.7187,2.0464,Act1
3.4966,1,1.405,7.6944,18.0108,0.7106,2.0879,Act1
3.0595,1,1.3897,7.7718,52.6845,0.6971,2.0708,Act1
3.5607,1,1.331,7.5994,36.0215,0.6622,2.072,Act1
2.6137,1,1.313,7.8563,42.6833,0.6642,2.0546,Act-1
2.4768,1,1.2861,7.7429,0.0,0.6523,2.0564,Act1
4.512,1,1.3897,7.54,18.0108,0.6963,2.0054,Act1
3.5315,1,1.5053,7.6828,50.9079,0.6813,2.099,Act1
3.3176,1,1.5137,7.6944,59.4689,0.6892,2.0702,Act1
2.7372,1,1.4775,7.5625,0.0,0.6701,2.0411,Act1
3.439,1,1.4712,7.5556,0.0,0.6546,2.0779,Act1
3.176,1,1.3188,7.525,18.0108,0.6448,2.0535,Act1
2.4254,0,1.0709,7.5682,42.6833,0.5968,2.0473,Act-1
2.3088,0,1.3463,7.7857,0.0,0.6907,2.0408,Act1
2.1366,1,1.4603,7.7929,32.8972,0.6798,2.0577,Act-1
4.0641,1,1.5277,7.7308,18.0108,0.7036,2.1316,Act1
3.3283,1,1.5628,7.6049,18.0108,0.6916,2.1378,Act1
2.503,1,1.3352,7.6733,32.8972,0.6419,2.0886,Act1
5.0205,1,1.3602,7.4948,0.0,0.6985,2.065,Act1
5.3151,1,1.5667,7.8889,18.0108,0.695,2.0768,Act1
4.4682,1,1.5616,7.5054,18.0108,0.6926,2.0944,Act1
5.0318,1,1.5376,7.5306,18.0108,0.6723,2.0846,Act-1
4.8347,1,1.5385,7.5345,18.0108,0.6771,2.0792,Act1
3.7078,1,1.5337,7.55,18.0108,0.6842,2.0936,Act-1
4.3975,1,1.5376,7.5833,18.0108,0.673,2.069,Act1
4.5225,1,1.4241,7.4368,18.0108,0.658,2.0734,Act1
4.8719,1,1.4158,7.4222,18.0108,0.6545,2.0862,Act1
3.7408,1,1.4161,7.4409,18.0108,0.6603,2.0964,Act1
4.052,1,1.3116,7.3869,18.0108,0.6356,2.0905,Act1
3.2993,1,1.4387,8.1739,18.0108,0.7214,2.084,Act1
2.7991,1,1.2855,7.6645,50.9079,0.6385,2.082,Act1
2.3866,1,1.3941,7.8222,18.0108,0.6746,2.0516,Act1
1.8601,1,1.4982,7.8387,52.6845,0.6686,2.0944,Act1
4.5561,1,1.5592,7.5069,18.0108,0.6989,2.0872,Act1
4.1813,1,1.4304,7.8011,18.0108,0.6681,2.077,Act1
2.4916,1,1.3059,8.0667,42.8057,0.7134,2.0183,Act1
4.2442,1,1.5253,7.8867,18.0108,0.734,2.0342,Act1
4.6063,1,1.5294,7.7311,18.0108,0.7576,2.0284,Act1
3.1304,1,1.3351,8.1196,31.2914,0.6622,2.0512,Act1
3.2656,1,1.2317,7.5054,36.0215,0.6343,2.1377,Act1
2.9312,1,1.2634,7.3448,18.0108,0.6416,2.1429,Act1
3.0887,1,1.5628,8.1019,0.0,0.7405,2.0132,Act1
3.7267,1,1.5658,7.5417,16.7855,0.6834,2.1124,Act1
3.1516,1,1.3527,8.8225,60.6941,0.6693,2.0457,Act-1
2.7138,1,1.4018,8.5926,0.0,0.6678,2.0984,Act1
0.4531,0,1.267,8.3219,116.947,0.6358,2.0122,Act-1
2.9509,1,1.3372,7.9653,65.7944,0.644,2.0187,Act-1
2.0712,1,1.3651,7.7759,17.8882,0.6931,2.0663,Act-1
5.8686,1,1.5641,7.4785,18.0108,0.6807,2.083,Act1
6.583,1,1.647,7.4706,18.0108,0.6961,2.143,Act-1
5.137,1,1.4143,7.414,18.0108,0.6514,2.0877,Act1
5.0424,1,1.4143,7.6075,18.0108,0.6535,2.0844,Act1
2.5525,1,1.4359,7.9851,77.0991,0.6803,2.0648,Act1
1.1071,1,1.3704,7.7901,36.0215,0.6673,2.0917,Act1
2.968,1,1.4956,7.6452,18.0108,0.6685,2.0985,Act1
0.7661,1,1.3879,7.954,50.9079,0.6568,2.0143,Act1
3.8691,1,1.4455,7.6119,52.6845,0.6696,2.0353,Act1
3.6072,1,1.5479,7.5725,32.8972,0.7075,2.1123,Act1
2.8544,1,1.347,7.6806,16.7855,0.6546,2.1012,Act1
5.3684,1,1.621,7.6842,34.7963,0.7079,2.0731,Act1
4.4851,1,1.5128,7.9633,18.0108,0.7475,2.0643,Act1
4.3273,1,1.6416,7.5494,18.0108,0.7496,2.1383,Act1
3.7422,1,1.4931,7.5714,0.0,0.679,2.1344,Act1
1.5226,0,1.3244,8.2996,16.405,0.7481,2.0676,Act1
3.6566,1,1.396,8.0852,34.4157,0.72,2.047,Act1
2.7814,1,1.277,7.5926,18.0108,0.6352,2.0827,Act1
3.8276,1,1.5264,8.3341,108.4777,0.678,2.0688,Act1
3.4431,1,1.539,8.0632,75.5805,0.6987,2.0913,Act1
3.7492,1,1.4286,8.2361,18.0108,0.6911,1.9913,Act1
3.8462,1,1.4316,8.247,18.0108,0.7039,1.9867,Act1
4.0326,1,1.5436,8.0,103.2549,0.6853,2.0636,Act1
3.2256,1,1.3527,8.0476,0.0,0.7443,2.0442,Act1
4.0153,1,1.4797,7.6035,0.0,0.7339,2.0388,Act1
5.1646,1,1.5114,7.6559,42.6833,0.7072,2.0702,Act1
5.5349,1,1.5282,7.3851,0.0,0.6925,2.078,Act1
5.4192,1,1.4391,7.3457,0.0,0.6592,2.074,Act1
4.6414,1,1.4946,7.6157,0.0,0.6821,2.0543,Act1
1.4155,0,1.3224,8.2996,16.2825,0.7481,2.0681,Act-1
2.0452,0,1.3132,8.3648,16.2825,0.789,2.0607,Act-1
1.4155,0,1.3202,8.2996,16.2825,0.7481,2.0701,Act-1
3.5844,1,1.2424,7.6611,18.0108,0.6469,2.0445,Act1
3.549,1,1.4696,8.131,18.0108,0.6903,2.0638,Act-1
1.1793,1,1.3603,7.8467,42.6833,0.6528,2.0262,Act1
1.3008,1,1.3569,7.7667,16.663,0.6528,2.0156,Act1
2.549,1,1.3266,7.6861,0.0,0.6528,2.0529,Act1
2.2963,1,1.4617,7.7348,18.0108,0.6567,2.038,Act1
2.5006,1,1.4505,7.7029,18.0108,0.6516,2.0361,Act1
2.329,1,1.2959,7.9021,32.8972,0.6963,1.972,Act1
1.4063,0,1.1135,8.0545,85.3667,0.6379,2.1358,Act-1
1.4264,0,1.1054,8.0032,128.05,0.6284,2.1394,Act-1
2.559,0,1.0,7.1987,32.8972,0.6065,2.191,Act-1
1.5389,0,1.0619,7.9647,128.05,0.6195,2.1447,Act-1
2.4648,0,1.0,7.2576,0.0,0.5968,2.1139,Act-1
1.5256,0,1.2656,7.8485,18.0108,0.6753,1.9688,Act-1
5.4941,1,1.414,8.1214,18.0108,0.6572,2.0817,Act-1
-1.3056,1,1.3133,8.7571,384.1501,0.6459,2.125,Act-1
2.9023,0,1.2513,7.6765,0.0,0.6445,1.9902,Act-1
1.5709,0,1.318,9.0833,32.8972,0.644,2.147,Act-1
4.2763,1,1.3095,7.8414,60.6941,0.6694,2.0983,Act-1
9.0562,1,1.2594,7.4509,0.0,0.6214,2.1053,Act-1
8.3951,0,1.1733,7.6338,42.6833,0.6069,2.1045,Act-1
5.8233,1,1.5017,7.5571,85.3667,0.6603,2.0686,Act1
4.1031,0,1.2566,8.2141,0.0,0.7325,2.0348,Act1
3.8222,1,1.4674,8.5021,85.3667,0.7165,2.0831,Act-1
2.1583,0,1.2339,8.0385,60.6941,0.6444,2.1051,Act1
2.5253,0,1.2684,7.7524,0.0,0.7666,1.9897,Act-1
1.7944,0,1.2513,7.7157,0.0,0.6412,1.99,Act-1
0.5589,0,1.2465,8.3135,0.0,0.6603,1.9902,Act-1
-7.7599,1,1.2271,8.2714,630.8027,0.6227,2.0564,Act-1
-6.9686,1,1.3033,8.2288,648.8135,0.6242,2.0564,Act-1
1.675,1,1.3324,7.913,18.0108,0.6795,1.9913,Act-1
4.5411,1,1.1617,7.7187,121.3882,0.6408,2.1159,Act-1
3.4121,1,1.5165,8.2083,256.1001,0.6734,2.1948,Act-1
2.424,1,1.4394,8.3789,33.5711,0.6774,2.0665,Act-1
2.9445,1,1.4376,8.3989,16.7855,0.685,2.0087,Act1
2.2519,1,1.4127,7.45,16.7855,0.6869,2.014,Act-1
2.6784,0,1.2363,8.1552,0.0,0.719,2.0916,Act-1
2.3185,1,1.2859,7.6389,16.7855,0.6411,2.1181,Act1
0.0711,0,1.2553,8.0981,104.9402,0.6222,2.1002,Act-1
4.6188,1,1.5414,7.8333,36.0215,0.7088,2.0675,Act1
1.668,1,1.3261,8.2696,32.8972,0.6923,2.0161,Act-1
1.9033,0,1.279,7.7857,0.0,0.6643,1.9898,Act-1
2.7636,1,1.4541,7.7267,34.6738,0.6805,2.0677,Act1
3.4935,1,1.3819,7.6884,97.4663,0.6931,2.0818,Act1
6.4855,1,1.4229,7.971,60.6941,0.8647,2.0574,Act-1
3.1141,0,1.2388,7.5658,60.6941,0.6242,2.0739,Act-1
3.4907,0,1.2422,7.3657,18.0108,0.6283,2.074,Act-1
2.0817,0,1.2178,8.3732,103.3774,0.6545,2.0364,Act-1
1.8168,0,1.218,7.8438,18.0108,0.6355,2.0188,Act-1
5.0591,1,1.3253,8.8048,36.0215,0.6811,2.0361,Act-1
2.9952,1,1.8473,8.6207,151.1611,0.7298,2.158,Act-1
2.4144,0,1.1477,7.8222,42.8057,0.6252,2.0639,Act-1
6.4668,1,1.4174,7.5429,42.6833,0.7119,2.054,Act1
3.1409,0,1.1494,7.8284,42.8057,0.6073,2.0321,Act1
3.5641,1,1.2546,7.7448,42.6833,0.6374,2.0792,Act1
5.7634,1,1.5496,7.3922,65.7944,0.645,2.1918,Act1
3.3874,1,1.3315,8.8065,18.0108,0.6785,2.0606,Act-1
1.9305,1,1.2569,7.4722,18.0108,0.6546,2.0532,Act1
5.5019,1,1.4443,7.7376,54.0323,0.6632,2.0908,Act1
1.3281,1,1.3526,8.1184,49.3022,0.6784,2.0535,Act-1
1.173,1,1.3261,8.2402,49.3022,0.6812,2.0298,Act-1
0.9601,1,1.2506,8.2063,164.0715,0.6911,2.0655,Act-1
3.5858,0,1.2527,7.8426,42.6833,0.6657,2.0203,Act-1
4.4919,0,1.1471,7.4367,42.6833,0.6324,2.1426,Act-1
3.1357,1,1.5263,8.0185,128.05,0.6977,2.1945,Act-1
2.5216,1,1.4262,7.9872,85.3667,0.6833,2.1282,Act1
2.8799,0,1.2734,7.9778,42.6833,0.6905,1.995,Act1
7.8367,0,1.1666,7.3592,42.6833,0.6056,2.0865,Act1
3.184,0,1.25,7.6875,42.6833,0.6266,2.0484,Act1
2.5093,0,1.2842,8.0679,42.6833,0.7099,1.9737,Act-1
3.4119,0,1.1656,7.7792,42.6833,0.625,2.0688,Act-1
3.8562,0,1.1844,7.8114,42.6833,0.6278,2.0699,Act-1
6.9816,1,1.3482,7.4683,0.0,0.7526,2.0921,Act-1
3.2643,1,1.2893,7.7861,16.405,0.6598,2.0624,Act1
2.2927,1,1.2995,7.7417,18.0108,0.6556,2.0852,Act1
3.2514,1,1.3932,8.1044,16.405,0.7323,2.0059,Act-1
0.7664,1,1.3519,7.3636,21.1351,0.6777,2.09,Act-1
2.987,1,1.3519,7.3788,18.0108,0.6848,2.0301,Act-1
1.7974,0,1.1018,8.1726,128.05,0.6251,2.1405,Act-1
2.4426,0,1.1982,8.3563,85.3667,0.6561,2.1406,Act-1
3.1371,1,1.392,7.8137,0.0,0.6873,2.0721,Act-1
2.4633,1,1.3413,8.14,49.1797,0.7054,2.0272,Act-1
-1.0439,0,1.2974,8.569,183.1926,0.6523,2.1045,Act-1
-0.5598,0,1.3017,8.3457,188.7441,0.6349,2.1046,Act-1
-2.1128,1,1.4143,8.4675,264.3247,0.6592,2.1045,Act-1
3.2639,1,1.5127,7.5263,32.8972,0.7033,2.1379,Act1
3.8454,1,1.3615,7.7115,42.6833,0.6659,2.0594,Act1
4.2695,0,1.2594,7.5263,0.0,0.6544,2.024,Act1
4.5653,1,1.4482,7.5397,0.0,0.7679,2.015,Act1
2.9674,1,1.4013,8.0376,170.7334,0.6742,2.069,Act-1
1.4372,0,1.2789,8.2778,0.0,0.8312,2.068,Act1
1.0388,0,1.2809,8.6136,39.0961,0.6872,1.9988,Act-1
2.3088,0,1.3463,7.7857,0.0,0.6907,2.0408,Act-1
1.1944,0,1.2795,8.5256,0.0,0.6723,2.0307,Act-1
3.3511,0,1.1869,7.5185,0.0,0.6301,2.0544,Act1
2.8497,1,1.3807,8.5333,85.3667,0.6802,2.0981,Act1
1.8078,1,1.3394,8.1579,0.0,0.6763,2.0217,Act-1
5.1801,1,1.4045,7.8701,60.6941,0.6569,2.0482,Act-1
4.1532,1,1.5329,7.7941,50.9079,0.6806,2.1264,Act1
4.0082,0,1.1788,7.6667,32.8972,0.6234,2.0712,Act1
4.6144,1,1.4068,7.3444,0.0,0.6622,1.9385,Act-1
3.9007,0,1.1692,7.9493,42.6833,0.6269,2.029,Act-1
3.8427,1,1.2669,7.8494,42.6833,0.649,2.0835,Act1
3.7493,1,1.4552,8.5449,31.2914,0.6929,2.0637,Act1
3.5254,1,1.5197,7.9456,0.0,0.7373,2.0851,Act-1
3.3139,1,1.485,7.6476,60.6941,0.6613,2.1033,Act1
5.8667,1,1.4029,7.7794,18.0108,0.6951,2.0625,Act-1
3.8394,1,1.4044,8.152,18.0108,0.7524,2.0349,Act1
2.8308,0,1.2044,7.7608,60.6941,0.6287,1.9968,Act1
3.906,1,1.5247,7.5946,36.0215,0.671,2.0753,Act1
4.2145,1,1.3952,8.2389,60.6941,0.6982,2.0542,Act-1
5.2158,1,1.2908,7.4861,42.6833,0.6342,2.0783,Act1
1.8695,0,1.2969,7.9167,42.6833,0.6563,1.9901,Act1
1.3858,0,1.2949,8.5764,0.0,0.6875,2.0388,Act-1
1.9642,0,1.184,8.0198,34.2932,0.64,2.0393,Act1
4.0935,1,1.3613,7.3413,18.0108,0.6808,2.0459,Act1
4.1524,1,1.5152,7.8161,16.7855,0.7106,2.0889,Act1
3.4707,1,1.2893,8.0875,0.0,0.7199,2.0962,Act1
1.0535,0,1.259,8.4881,18.0108,0.6799,2.0607,Act-1
4.036,0,1.1668,7.1535,0.0,0.6396,2.1814,Act-1
1.5859,0,1.093,8.0789,42.6833,0.6397,1.9327,Act1
3.4305,1,1.4148,8.0159,42.6833,0.7725,2.1028,Act-1
2.8774,1,1.3463,7.8718,0.0,0.6551,2.0995,Act1
2.0227,0,1.232,8.1538,85.3667,0.6464,2.145,Act-1
2.7652,1,1.5025,7.825,75.5805,0.7241,2.1063,Act-1
2.8152,1,1.3447,7.4667,16.7855,0.6562,2.0511,Act1
2.7569,1,1.3077,7.6812,32.8972,0.6426,2.0604,Act1
1.615,0,1.2565,7.8929,50.9079,0.6265,2.0375,Act-1
2.5861,1,1.3707,8.3635,91.9855,0.7017,2.0545,Act-1
2.7329,0,1.2016,7.5833,18.0108,0.627,2.062,Act-1
3.0405,0,1.175,7.4958,18.0108,0.6328,2.0372,Act-1
4.1618,1,1.2219,7.7717,96.7156,0.6388,2.0622,Act1
4.3969,0,1.1852,8.2421,18.0108,0.6521,2.0506,Act-1
2.4291,1,1.3608,7.4762,16.7855,0.6636,2.0364,Act1
5.5485,1,1.295,7.4028,0.0,0.6867,2.0945,Act-1
4.8214,1,1.321,7.4841,0.0,0.699,2.0191,Act-1
5.0198,1,1.4745,7.553,0.0,0.7231,2.1225,Act1
1.8409,1,1.3855,8.0868,52.4265,0.6619,2.0614,Act1
1.8695,0,1.2975,7.9167,42.6833,0.6563,1.9901,Act1
3.4261,0,1.1971,8.0,128.05,0.6157,2.0433,Act1
1.1925,0,1.2839,8.2361,18.0108,0.6947,1.9823,Act-1
1.9897,0,1.2277,7.8438,60.6941,0.6365,2.0009,Act-1
6.9156,1,1.7375,7.6724,42.6833,0.7055,2.13,Act-1
3.0203,1,1.3654,8.2767,0.0,0.7185,2.0843,Act1
4.9775,1,1.4055,7.8472,60.6941,0.6907,2.0625,Act-1
6.5565,1,1.3794,8.3476,0.0,0.6445,2.1037,Act-1
3.5596,1,1.2647,7.951,0.0,0.6502,2.103,Act1
2.4771,1,1.3406,8.147,49.3022,0.7054,2.1021,Act1
3.1441,1,1.407,8.0317,32.8972,0.6851,2.0917,Act1
2.9953,1,1.2629,7.3194,0.0,0.6354,2.076,Act1
1.8695,0,1.2995,7.9167,42.6833,0.6563,1.9902,Act-1
4.5749,0,1.1661,7.4872,0.0,0.6195,2.0491,Act1
3.1096,0,1.1726,7.5877,0.0,0.626,2.0463,Act-1
4.0715,1,1.4228,7.5533,0.0,0.6685,2.0875,Act1
5.4691,1,1.3523,7.8819,0.0,0.6865,2.1234,Act1
0.9288,0,1.3865,7.9902,0.0,0.7029,2.0376,Act-1
0.9918,0,1.2995,7.7917,32.8972,0.6435,1.9896,Act-1
4.0428,1,1.3087,7.4815,0.0,0.6714,2.0811,Act1
3.3187,1,1.3274,7.9705,18.0108,0.6861,2.1064,Act1
2.3496,1,1.2432,7.9531,18.0108,0.653,2.078,Act1
1.005,1,1.358,8.1713,49.3022,0.6875,2.0477,Act1
2.7292,0,1.3032,7.3889,0.0,0.6771,2.0005,Act-1
4.6169,1,1.2491,7.62,42.6833,0.6869,2.0403,Act1
-0.1707,0,1.1358,8.4474,60.6941,0.6216,1.9859,Act-1
-0.2202,0,1.1459,8.3229,60.6941,0.6299,1.9794,Act-1
3.0243,1,1.3324,8.4,60.6941,0.6676,2.1136,Act-1
0.361,0,1.2658,7.6944,16.663,0.6279,1.7514,Act1
1.5268,1,1.2955,8.0242,52.4265,0.6529,2.0589,Act-1
2.3171,1,1.3474,7.6988,18.0108,0.7525,2.0001,Act-1
0.5301,1,1.3592,8.279,18.0108,0.7302,2.0915,Act-1
0.9554,1,1.3482,8.2355,60.6941,0.7205,2.0587,Act-1
5.1591,1,1.4744,7.4204,0.0,0.6966,2.0792,Act1
3.8916,1,1.2899,7.7836,18.0108,0.7182,2.0292,Act1
3.0555,1,1.3543,8.0606,42.6833,0.6935,1.9987,Act1
3.1304,1,1.3351,8.1196,31.2914,0.6622,2.0512,Act1
2.0235,1,1.3462,8.1083,49.3022,0.7194,2.0474,Act-1
5.3684,1,1.621,7.6842,34.7963,0.7079,2.0734,Act-1
1.7219,1,1.3466,8.2604,121.3882,0.6713,2.0693,Act-1
1.5014,1,1.3398,7.6944,3.1243,0.6446,2.122,Act-1
2.899,1,1.3364,7.8226,42.6833,0.6459,2.0834,Act1
0.6135,0,1.2464,8.5128,42.6833,0.6011,2.0285,Act-1
2.2488,1,1.3417,8.2583,0.0,0.6558,2.029,Act-1
0.5335,0,1.2295,8.321,50.9079,0.6402,2.0109,Act-1
-0.386,0,1.2563,8.3889,128.05,0.6164,2.0173,Act-1
0.2805,0,1.2466,8.5981,116.947,0.6492,2.0165,Act-1
-0.7158,0,1.2438,8.6233,149.8442,0.6391,2.023,Act1
1.2012,1,1.3376,8.0417,170.7334,0.6813,2.0105,Act-1
1.6339,0,1.2316,7.8167,18.0108,0.6347,1.9941,Act-1
1.3398,0,1.2387,7.8452,18.0108,0.6399,1.9773,Act-1
2.8378,1,1.3147,7.7049,32.8972,0.6739,2.0848,Act-1
0.2659,1,1.2945,8.3411,36.0215,0.653,2.0396,Act-1
5.0487,1,1.1744,7.7275,18.0108,0.626,2.0695,Act1
-0.0857,1,1.2211,8.1494,60.6941,0.723,2.0489,Act-1
3.4506,1,1.4122,7.6595,0.0,0.7037,1.991,Act1
7.3185,1,1.5038,7.4641,0.0,0.7052,2.0409,Act1
1.9022,0,1.2509,8.3093,34.1707,0.7535,2.0734,Act-1
-0.1494,0,1.2498,8.1905,32.8972,0.6028,1.7453,Act-1
-0.1095,0,1.2121,8.3085,109.9963,0.6739,2.0512,Act-1
3.097,1,1.4165,7.8851,20.6251,0.6763,2.0161,Act1
-2.1574,1,1.2562,8.4767,426.8334,0.6259,2.0711,Act-1
2.5153,1,1.2916,8.2102,18.0108,0.7253,2.002,Act-1
2.1539,1,1.2916,8.3398,18.0108,0.7053,2.005,Act-1
1.3079,1,1.2805,8.1339,18.0108,0.688,2.009,Act1
2.5788,1,1.4922,8.0189,31.2914,0.7109,2.0411,Act1
1.9124,1,1.2872,8.1734,18.0108,0.7066,2.0046,Act-1
2.5933,1,1.3173,8.7412,18.0108,0.6621,2.0158,Act1
3.9086,1,1.2935,7.5795,0.0,0.651,2.0865,Act1
2.9266,1,1.3389,8.1042,0.0,0.6945,2.0361,Act1
1.3469,0,1.2693,8.641,128.05,0.6359,2.0042,Act1
1.9203,0,1.2809,8.1818,42.6833,0.6531,2.0031,Act-1
1.9888,1,1.3485,7.5208,3.1243,0.6708,2.0792,Act-1
4.2094,1,1.3485,7.5347,0.0,0.6769,2.0719,Act-1
2.8367,1,1.4653,8.0417,16.405,0.6947,2.0261,Act1
3.7536,1,1.453,7.8953,60.6941,0.6908,2.1261,Act1
3.1179,1,1.4393,8.1733,60.6941,0.7013,2.175,Act1
2.2796,0,1.2068,7.6019,18.0108,0.6424,1.963,Act1
4.4281,1,1.2683,7.6033,0.0,0.6403,2.0745,Act-1
2.9193,0,1.1107,8.0251,42.6833,0.5999,2.0658,Act-1
3.7642,0,1.1006,8.2407,42.6833,0.6398,2.1413,Act-1
3.8021,0,1.1018,8.0816,42.6833,0.6408,2.1407,Act1
2.9721,0,1.1045,7.9926,42.6833,0.627,2.1452,Act1
2.849,0,1.0649,7.9823,42.6833,0.6215,2.1449,Act-1
3.0823,0,1.1004,8.0455,42.6833,0.6231,2.1408,Act1
3.9295,0,1.0992,8.3284,42.6833,0.6412,2.1407,Act-1
4.5478,0,1.106,7.901,0.0,0.631,2.0403,Act1
1.9468,0,1.0116,7.9682,170.7334,0.5874,2.0683,Act1
4.7975,0,1.0196,7.5321,0.0,0.614,2.1564,Act1
4.488,0,1.0635,7.5733,0.0,0.6236,2.1444,Act-1
5.169,0,1.1673,7.6399,0.0,0.6333,2.1347,Act1
3.5193,0,1.1012,8.1157,42.6833,0.6245,2.1408,Act1
3.562,0,1.1014,8.0054,42.6833,0.6371,2.1335,Act1
1.517,0,1.2239,8.25,36.0215,0.6384,2.03,Act-1
1.4316,0,1.2411,8.1889,50.9079,0.6375,2.0292,Act-1
4.9284,1,1.5644,7.7778,34.6738,0.6886,2.1451,Act1
4.4083,0,1.117,7.7528,42.6833,0.6138,2.1145,Act-1
4.6704,0,1.1679,7.308,0.0,0.6104,2.0728,Act1
2.2891,0,1.1739,7.5682,0.0,0.6059,2.0743,Act1
0.9769,0,1.0415,8.3385,65.7944,0.5745,2.0048,Act-1
-0.1782,0,1.0419,8.4815,75.5805,0.5674,1.9546,Act-1
-2.0406,1,1.0953,8.165,398.962,0.6146,2.0439,Act-1
-1.7447,1,1.1575,8.1889,351.5916,0.6206,2.0444,Act-1
1.4949,0,1.0329,8.0159,36.0215,0.5992,2.0333,Act1
-3.1761,0,1.0694,8.1602,515.3256,0.5974,2.032,Act-1
-5.2485,0,1.0767,8.1549,447.9709,0.5968,2.0417,Act-1
5.0867,1,1.4834,7.6844,0.0,0.6943,2.1451,Act1
5.9456,1,1.3753,7.6627,0.0,0.6754,2.0829,Act-1
3.9676,1,1.3857,7.8492,42.6833,0.688,2.0745,Act1
3.5424,1,1.3001,7.4683,0.0,0.6271,2.0186,Act-1
3.5894,1,1.1814,8.0833,137.8374,0.6235,2.0643,Act-1
2.5892,0,1.1944,7.7976,60.6941,0.6097,2.0616,Act-1
0.0863,0,1.0383,8.2609,185.9573,0.5878,2.0114,Act-1
3.1151,1,1.2747,7.5222,18.0108,0.6372,2.1433,Act1
4.3134,1,1.3123,7.4905,18.0108,0.665,2.1433,Act-1
4.1996,1,1.3316,7.536,18.0108,0.6503,2.1434,Act1
3.899,1,1.3152,7.6262,16.405,0.6749,2.1438,Act1
4.0157,0,1.2357,7.9525,75.5805,0.9042,1.9713,Act-1
3.9018,1,1.3578,7.4815,32.8972,0.6718,2.0622,Act-1
2.0455,0,1.0,7.5067,144.4992,0.57,2.0183,Act-1
3.6182,1,1.2812,7.7589,0.0,0.6305,2.0572,Act1
1.8378,0,1.144,8.0994,60.6941,0.6572,2.0173,Act-1
6.0559,1,1.3934,8.2401,59.0883,0.6625,2.0806,Act1
3.8108,1,1.3804,7.8507,18.0108,0.7123,2.0359,Act1
0.6731,0,1.0076,7.9671,146.0608,0.6162,2.0099,Act-1
-0.4705,0,1.0076,8.037,188.7441,0.5995,2.017,Act-1
0.9211,0,1.0433,8.0,32.8972,0.5935,1.9392,Act-1
3.0086,1,1.2801,7.7564,18.0108,0.6445,2.0135,Act1
4.3661,1,1.2449,7.7622,18.0108,0.6352,2.0993,Act1
1.9643,0,1.0869,7.8895,72.043,0.6204,2.0651,Act-1
4.453,1,1.5265,8.2685,33.1905,0.7179,2.0639,Act-1
0.7141,0,1.0635,8.1894,18.0108,0.6035,2.0363,Act-1
0.4613,0,1.0722,8.3083,18.0108,0.6058,1.9157,Act-1
0.5886,0,1.0641,8.3712,0.0,0.5989,1.8903,Act-1
1.3384,0,1.2142,8.0245,50.9079,0.6439,2.0815,Act-1
3.1892,0,1.1829,7.4755,42.6833,0.6209,2.0505,Act-1
0.9041,0,1.2161,8.0156,36.0215,0.6496,2.0698,Act-1
0.5378,0,1.0703,8.4107,18.0108,0.6051,2.0385,Act-1
4.0616,0,1.2231,8.2042,18.0108,0.7049,1.9798,Act-1
3.198,0,1.2316,7.8019,18.0108,0.6775,1.9874,Act-1
1.6119,0,1.2015,7.971,18.0108,0.6465,2.0604,Act-1
2.4571,0,1.221,8.0038,34.4157,0.6391,2.0479,Act-1
1.2308,0,1.245,8.2407,49.3022,0.6574,2.0316,Act-1
2.5788,0,1.2382,7.6964,18.0108,0.6479,1.998,Act-1
1.3909,0,1.1836,7.4432,21.1351,0.6224,2.1125,Act-1
1.5919,1,1.2739,7.4618,21.1351,0.6708,2.08,Act-1
2.5724,1,1.271,7.7998,39.1458,0.658,2.1128,Act-1
1.8832,1,1.2727,7.5682,21.1351,0.6431,2.1132,Act-1
3.302,1,1.27,7.7518,21.1351,0.6694,2.114,Act-1
2.5314,1,1.268,7.6306,21.1351,0.6383,2.1175,Act-1
3.2515,1,1.2692,7.5259,21.1351,0.6787,2.1154,Act-1
3.1535,1,1.2692,7.5713,21.1351,0.6705,2.1154,Act-1
1.7559,1,1.2738,7.6692,21.1351,0.6382,2.1221,Act-1
1.8264,1,1.2675,7.4741,21.1351,0.6374,2.115,Act-1
2.0901,1,1.2675,7.5469,21.1351,0.6545,2.1148,Act-1
3.6028,1,1.3142,7.5009,21.1351,0.6633,2.1136,Act-1
1.8436,1,1.266,7.4684,21.1351,0.6374,2.1147,Act-1
2.195,1,1.2618,7.4528,21.1351,0.6351,2.1146,Act-1
3.2494,1,1.2674,7.5144,0.0,0.6397,2.0582,Act-1
2.2918,0,1.2193,7.8088,60.6941,0.6324,2.0072,Act-1
6.2828,1,1.422,7.983,18.0108,0.6751,2.0909,Act1
2.9062,0,1.2104,8.0221,52.4265,0.6377,2.0624,Act-1
3.26,1,1.2885,7.9328,34.7963,0.6475,2.0426,Act1
3.8552,1,1.3999,8.0313,51.2013,0.7002,2.0449,Act-1
2.9605,1,1.4238,8.1288,51.2013,0.686,2.0484,Act1
2.9605,1,1.4275,8.1288,51.2013,0.686,2.0485,Act1
2.9605,1,1.4384,8.1288,51.2013,0.686,2.0488,Act1
3.4212,1,1.5138,7.5926,34.7963,0.6685,2.0814,Act1
5.025,1,1.458,7.8864,42.6833,0.7764,2.0132,Act1
4.8806,1,1.458,7.8291,42.6833,0.8533,2.0103,Act1
1.5587,1,1.4174,7.8397,60.5716,0.6707,2.0151,Act-1
4.2805,1,1.3495,7.6988,59.4689,0.6459,2.1082,Act1
3.6735,1,1.2966,7.9077,34.4157,0.7057,2.0468,Act1
2.7362,1,1.4137,7.7381,51.4593,0.6769,2.0248,Act1
4.7604,1,1.4476,7.5517,18.0108,0.6818,2.1168,Act1
4.9348,1,1.4259,7.7265,54.0323,0.6756,2.0914,Act1
3.7336,1,1.4697,7.5606,50.9079,0.682,2.0918,Act1
4.7307,1,1.3945,7.5741,18.0108,0.6947,2.0406,Act1
3.7536,1,1.3713,7.6619,70.8178,0.6743,2.085,Act1
2.5125,1,1.457,7.7667,18.0108,0.6848,2.0361,Act1
4.0736,1,1.3744,7.6131,0.0,0.6576,2.0445,Act1
3.9686,1,1.545,7.9245,34.4157,0.7264,2.0618,Act1
3.3705,1,1.3864,7.7452,52.6845,0.6902,2.0708,Act1
3.3663,1,1.3866,7.6458,0.0,0.6914,2.0738,Act1
5.201,1,1.3841,7.6004,18.0108,0.7146,2.0019,Act1
4.2983,1,1.3983,7.6506,18.0108,0.7135,2.003,Act1
2.1766,0,1.2899,8.1312,0.0,0.6919,2.0831,Act-1
-0.3309,0,1.1847,7.8106,45.8077,0.6294,2.1217,Act-1
3.6678,1,1.4019,7.6369,0.0,0.6475,2.0493,Act1
1.7106,0,1.1569,7.5333,16.7855,0.6204,2.0414,Act1
3.6678,1,1.4019,7.6369,0.0,0.6475,2.0493,Act1
3.4789,1,1.319,7.7578,42.6833,0.6505,2.1297,Act1
1.2126,0,1.2869,7.7879,32.8972,0.7002,1.9945,Act-1
3.4529,1,1.353,7.7471,121.3882,0.6539,2.074,Act-1
4.2554,1,1.384,7.5625,16.7855,0.6622,2.1255,Act1
4.4481,1,1.4471,7.5556,0.0,0.7394,1.981,Act1
3.6689,0,1.1862,7.4912,0.0,0.6272,2.057,Act1
3.0018,1,1.3291,7.8267,18.0108,0.6861,2.0306,Act-1
4.476,1,1.3753,8.7826,60.6941,0.6599,2.0646,Act1
1.6565,0,1.2237,8.3261,103.3774,0.62,2.053,Act-1
2.9067,1,1.3152,7.7738,59.4689,0.6425,2.045,Act-1
0.8827,0,1.2458,8.3997,67.3129,0.6898,2.0787,Act-1
2.7742,1,1.3906,7.8301,65.7944,0.6896,2.0587,Act1
0.4566,0,1.2524,8.576,65.7072,0.7031,2.0975,Act-1
1.8567,0,1.219,7.9792,78.7048,0.6101,2.0324,Act1
3.9305,0,1.062,7.7984,42.6833,0.6194,2.1451,Act1
4.1795,0,1.1066,8.0892,0.0,0.6463,2.1372,Act1
2.7573,0,1.062,7.9274,85.3667,0.6184,2.1449,Act-1
3.6166,0,1.0625,7.9262,42.6833,0.6188,2.145,Act-1
3.1567,0,1.1016,8.2824,42.6833,0.6252,2.1414,Act1
2.4729,0,1.0385,8.4935,0.0,0.6897,1.876,Act-1
3.9579,0,1.2768,8.1241,18.0108,0.6714,2.0664,Act1
1.6589,0,1.036,8.1343,50.9079,0.5763,1.9864,Act1
1.7654,0,1.0636,8.0469,36.0215,0.637,2.0407,Act-1
2.3573,0,1.037,8.1,42.6833,0.5769,1.9645,Act-1
1.797,0,1.0118,7.45,0.0,0.5907,2.0794,Act-1
1.3288,0,1.0,7.9667,85.3667,0.5629,1.9698,Act-1
0.5622,0,1.1169,7.6474,42.6833,0.6226,2.1008,Act1
1.5887,0,1.184,7.4841,21.1351,0.6149,2.1216,Act-1
4.5865,0,1.2768,7.0741,31.672,0.6996,2.0899,Act1
4.4362,1,1.4224,7.6071,36.0215,0.643,2.104,Act1
3.8437,1,1.4128,8.0086,16.405,0.6684,2.059,Act1
3.9263,0,1.2538,7.7623,42.6833,0.6447,2.1306,Act1
3.3737,1,1.3396,8.0476,60.6941,0.67,2.0387,Act1
4.6552,1,1.5391,7.875,34.4157,0.712,2.0581,Act1
5.291,1,1.379,7.5,18.0108,0.684,2.0144,Act1
5.6435,1,1.3731,7.4821,18.0108,0.6788,2.0466,Act1
3.4494,1,1.4003,8.0584,18.0108,0.7207,2.0528,Act1
2.5077,0,1.2579,7.8333,0.0,0.6434,2.0612,Act1
2.2881,0,1.246,7.7179,18.0108,0.6549,1.98,Act-1
2.0665,0,1.3016,8.4012,85.3667,0.6654,2.116,Act-1
0.4788,0,1.015,8.207,177.6411,0.6274,2.0094,Act-1
1.6005,0,1.2754,7.7222,32.8972,0.6861,2.0019,Act-1
2.6081,0,1.2727,8.0833,42.6833,0.6449,2.0222,Act-1
3.6625,1,1.2664,7.7315,0.0,0.6276,2.0444,Act1
1.9564,0,1.0,7.1481,18.0108,0.5806,2.031,Act-1
3.7899,1,1.5304,7.8712,101.9072,0.6612,2.0745,Act1
4.3469,1,1.5275,7.8963,59.2238,0.6605,2.0747,Act-1
2.7672,1,1.3238,7.8309,17.8882,0.6424,2.0903,Act-1
6.9136,1,1.6883,7.6325,42.6833,0.6932,2.0939,Act-1
1.922,1,1.3751,7.5648,32.8972,0.6414,2.1025,Act-1
1.937,1,1.3382,7.8561,18.0108,0.645,2.0843,Act-1
4.1507,1,1.4417,7.8698,59.2238,0.648,2.0749,Act-1
1.2021,0,1.0558,8.5238,42.6833,0.5715,1.8967,Act-1
3.4364,0,1.1029,7.9548,42.6833,0.6253,2.1397,Act1
5.2528,0,1.1593,7.5481,42.6833,0.6301,2.1336,Act1
1.9839,1,1.2784,8.5294,188.7441,0.6344,2.1415,Act1
4.0955,0,1.0992,8.1299,42.6833,0.6231,2.1412,Act1
3.4675,0,1.0832,7.892,85.3667,0.596,1.9912,Act-1
2.431,0,1.389,8.0563,121.3882,0.6397,1.9945,Act-1
3.9119,0,1.0337,8.0219,0.0,0.5939,2.0139,Act-1
4.7927,0,1.0,7.2257,32.8972,0.5798,2.0799,Act1
2.3845,0,1.0417,8.1667,60.6941,0.587,1.9937,Act-1
5.61,1,1.3143,7.7284,0.0,0.6632,2.0521,Act-1
11.5449,1,1.4034,7.675,54.0323,0.6318,2.065,Act1
4.0538,0,1.2124,7.8519,42.6833,0.6185,2.0036,Act-1
8.3929,1,1.4218,7.6196,85.3667,0.64,2.0867,Act-1
3.642,0,1.0203,8.2901,85.3667,0.5948,2.0243,Act1
2.5635,0,1.2643,7.9444,42.6833,0.6197,1.9605,Act1
2.9287,0,1.2378,7.625,42.6833,0.6266,2.0169,Act1
5.6153,0,1.1612,7.6333,42.6833,0.5979,1.9743,Act-1
5.3623,0,1.2483,7.6833,42.6833,0.6066,1.962,Act-1
6.128,0,1.1513,7.4848,0.0,0.5968,1.9755,Act-1
0.3627,0,1.3407,8.2092,426.8334,0.5956,2.0128,Act-1
3.7494,0,1.1777,7.8155,128.05,0.6164,2.0833,Act-1
2.0953,0,1.1328,7.94,85.3667,0.6085,1.9617,Act-1
2.7362,0,1.1338,8.0133,170.7334,0.5969,1.9719,Act-1
4.7572,1,1.4415,7.5911,0.0,0.6692,2.0664,Act-1
3.9273,1,1.3265,7.7971,0.0,0.676,2.0152,Act-1
3.4532,1,1.2734,7.9236,42.6833,0.6643,2.0197,Act1
2.2084,0,1.0428,7.9825,18.0108,0.6095,2.0716,Act-1
3.7393,1,1.3707,7.4333,0.0,0.6328,2.1304,Act1
4.1916,1,1.2579,7.8423,34.4157,0.6693,2.073,Act1
4.4103,1,1.5343,7.6815,59.2238,0.683,2.0745,Act1
4.3147,1,1.4536,7.9556,85.3667,0.6825,2.04,Act1
6.1231,1,1.4083,7.7244,16.405,0.6376,2.0472,Act-1
5.2049,0,1.0622,7.6586,0.0,0.6204,2.1454,Act1
3.0538,0,1.0849,8.0267,128.05,0.5969,1.9801,Act1
5.146,0,1.0897,7.6481,42.6833,0.5902,1.9781,Act1
3.5076,0,1.0271,7.8462,42.6833,0.5796,1.9846,Act1
4.8365,0,1.0867,7.7619,85.3667,0.5874,1.9832,Act1
1.9296,0,1.2238,8.8633,65.7072,0.6464,2.1152,Act1
6.1287,0,1.0568,7.4889,0.0,0.616,2.1524,Act-1
5.9566,0,1.1553,7.5089,42.6833,0.6261,2.1336,Act-1
3.7238,1,1.259,7.9257,0.0,0.653,2.0238,Act1
4.9767,1,1.3425,7.6389,16.7855,0.6524,1.9967,Act1
3.352,0,1.2319,7.8214,85.3667,0.6176,2.0191,Act1
4.7162,0,1.0795,7.8,85.3667,0.5949,1.9847,Act-1
3.4282,0,1.1623,7.6149,60.6941,0.6119,2.0531,Act1
2.7072,0,1.037,8.0667,42.6833,0.5769,1.9507,Act-1
7.1611,0,1.0256,7.7374,0.0,0.5875,1.9699,Act-1
3.0685,0,1.1066,7.9744,0.0,0.5982,1.965,Act1
6.1744,0,1.088,7.5833,42.6833,0.5899,1.9828,Act-1
3.1099,0,1.1344,7.5794,18.0108,0.6055,2.0435,Act1
3.8288,0,1.1993,7.7698,60.6941,0.6097,2.0162,Act1
6.5291,0,1.427,7.5694,0.0,0.6182,1.9742,Act-1
3.8235,0,1.1876,7.6402,118.2639,0.6018,2.0509,Act-1
-5.203,1,1.1807,8.4304,563.0336,0.6152,2.0355,Act-1
2.7472,0,1.0271,7.9744,20.1582,0.5802,1.9701,Act1
3.4783,0,1.0298,7.8889,42.6833,0.5788,1.9677,Act1
6.9804,0,1.0567,7.4489,0.0,0.6149,2.1349,Act-1
7.2443,0,1.0555,7.4479,0.0,0.6138,2.1444,Act1
6.9804,0,1.0567,7.4489,0.0,0.6149,2.1349,Act1
8.0054,1,1.3536,7.8232,0.0,0.6444,2.0741,Act-1
7.4821,1,1.2832,7.8191,0.0,0.6369,2.0761,Act1
7.1233,0,1.0,7.254,42.6833,0.5785,2.0083,Act-1
6.9313,0,1.0239,7.6714,18.0108,0.5918,2.0523,Act-1
9.3051,0,1.015,7.439,0.0,0.6194,1.9781,Act1
8.3524,1,1.2558,7.5901,0.0,0.6415,2.0804,Act-1
4.5983,0,1.1545,7.2569,0.0,0.5986,2.0736,Act1
6.2582,1,1.354,7.2197,0.0,0.6261,2.1684,Act-1
5.1088,0,1.159,7.1812,0.0,0.6008,2.0931,Act1
5.8403,0,1.0171,7.4737,0.0,0.5821,1.9868,Act1
7.017,0,1.0172,7.695,0.0,0.591,2.038,Act-1
6.2538,0,1.1759,7.1746,0.0,0.6023,2.0849,Act1
19.5706,0,1.7243,7.3794,0.0,0.6145,2.0697,Act1
6.5611,0,1.0152,7.4286,0.0,0.5826,1.9913,Act-1
10.7673,0,1.3455,7.3706,0.0,0.6097,2.0646,Act1
7.0544,0,1.1677,8.024,60.6941,0.6259,2.0943,Act1
6.373,0,1.0096,7.6768,103.3774,0.6061,2.0172,Act-1
8.5424,1,1.3065,7.6076,0.0,0.6222,2.0856,Act-1
7.4435,0,1.0886,7.8111,85.3667,0.6106,2.1405,Act-1
4.228,0,1.0624,8.0115,128.05,0.5918,1.9911,Act-1
4.7971,0,1.0,7.1,0.0,0.5744,2.0564,Act-1
6.1663,0,1.1462,7.1603,0.0,0.5991,2.0931,Act-1
6.1674,1,1.2099,7.3108,0.0,0.6075,2.089,Act-1
1.5977,0,1.0254,8.1237,293.6843,0.5882,2.0286,Act1
5.4504,0,1.0123,7.68,85.3667,0.5792,1.9944,Act1
6.0286,0,1.0136,7.5507,42.6833,0.5808,1.9943,Act-1
5.6895,0,1.0927,7.7708,146.0608,0.5952,2.0027,Act1
10.0335,0,1.0,7.1724,42.6833,0.5809,2.0027,Act1
7.9284,0,1.0,7.2174,42.6833,0.5792,1.9989,Act-1
7.9668,1,1.1574,7.7006,18.0108,0.609,2.0949,Act-1
6.4995,0,1.0,7.2632,42.6833,0.5776,1.9943,Act-1
5.775,0,1.0,7.2941,42.6833,0.5764,1.9909,Act-1
8.004,0,1.2369,7.4943,0.0,0.6152,2.0462,Act-1
4.0158,0,1.0112,7.6039,0.0,0.5893,2.038,Act1
3.218,0,1.0136,7.5942,96.7156,0.5747,1.9883,Act1
3.3535,0,1.0468,8.2042,0.0,0.6,1.9815,Act-1
4.1464,0,1.0,7.4375,42.6833,0.5724,1.9811,Act1
2.9526,0,1.0,7.575,42.6833,0.5701,1.9813,Act1
3.7098,0,1.0385,8.0833,0.0,0.5948,1.9811,Act1
4.7639,0,1.0,7.386,42.6833,0.5943,1.9774,Act1
5.2226,0,1.1868,7.7523,117.3762,0.6447,1.9866,Act1
6.9265,1,1.4265,7.6146,16.7855,0.6393,2.0244,Act1
1.3368,0,1.1127,8.5093,36.0215,0.6073,1.9849,Act-1
5.217,1,1.4976,7.8333,50.9079,0.6466,2.061,Act-1
3.8655,1,1.3317,7.7348,0.0,0.6508,2.01,Act1
-0.6918,0,1.0337,8.8085,154.0789,0.6172,1.9663,Act-1
3.5702,0,1.1669,8.1019,60.6941,0.6403,2.017,Act1
3.18,0,1.1852,7.7611,36.0215,0.622,2.0795,Act1
2.9425,0,1.1887,7.7759,36.0215,0.6237,2.0792,Act1
4.2758,1,1.3012,7.7567,0.0,0.6786,2.0159,Act1
4.4179,1,1.4244,7.5893,18.0108,0.646,2.0433,Act1
0.9009,0,1.1205,8.4,103.3774,0.602,1.9793,Act-1
-3.8458,1,1.3389,8.3848,546.1971,0.6297,2.0332,Act-1
-1.041,1,1.3452,8.1829,474.2038,0.6316,2.0867,Act-1
3.0922,0,1.2162,7.8864,18.0108,0.6531,2.0075,Act1
3.0231,0,1.2343,7.7424,0.0,0.6509,1.9799,Act1
5.8562,1,1.4058,7.5901,18.0108,0.6692,2.0489,Act1
4.5311,1,1.3939,7.6111,18.0108,0.6749,1.9806,Act1
4.2079,1,1.2277,7.7613,42.6833,0.6326,2.0262,Act-1
3.1419,0,1.0298,7.5,0.0,0.6591,1.9455,Act-1
8.4787,1,1.4889,7.581,42.6833,0.7012,2.0264,Act-1
3.6293,0,1.181,7.6364,32.8972,0.6073,2.0103,Act-1
1.4487,0,1.016,7.6548,0.0,0.5876,2.0307,Act1
-0.9464,0,1.0,8.2222,170.7334,0.5677,2.0469,Act-1
3.9187,1,1.3061,7.7882,0.0,0.6848,2.0146,Act1
3.361,1,1.42,7.744,18.0108,0.6455,2.0603,Act1
4.3454,1,1.4338,7.4514,18.0108,0.6499,2.0622,Act1
3.3963,1,1.3486,7.6975,18.0108,0.6493,2.1357,Act1
3.8093,0,1.184,7.5,18.0108,0.6197,2.0686,Act1
0.3306,0,1.0648,8.1212,132.2626,0.5706,1.9244,Act-1
2.6593,1,1.2857,7.9983,78.7048,0.6531,2.0737,Act-1
1.8526,0,1.2306,8.1898,34.4157,0.6421,2.0393,Act-1
0.5197,0,1.2129,7.6667,21.1351,0.6063,2.0311,Act-1
1.1765,0,1.2013,7.6032,21.1351,0.604,2.047,Act-1
2.7403,0,1.2129,7.6842,18.0108,0.6115,2.0223,Act-1
1.8009,0,1.2145,7.8444,103.3774,0.6108,2.0154,Act-1
2.2903,0,1.2417,7.9286,32.8972,0.6291,2.005,Act-1
2.4912,0,1.2417,8.0714,42.6833,0.6319,1.9931,Act-1
4.2438,1,1.3962,7.862,16.405,0.6726,2.0321,Act1
1.9083,0,1.2341,8.0,57.2784,0.62,2.0144,Act1
5.197,1,1.4836,8.4583,36.0215,0.6759,2.0621,Act-1
1.3394,1,1.3549,7.6,21.1351,0.6219,2.1294,Act-1
3.56,1,1.3549,7.6133,18.0108,0.6264,2.128,Act-1
2.8831,0,1.2042,7.7348,32.8972,0.6055,2.0177,Act-1
3.6515,0,1.1863,7.5238,0.0,0.6211,2.0438,Act1
2.7396,1,1.2298,7.5909,42.6833,0.6325,2.1077,Act1
2.6676,0,1.1774,7.4444,0.0,0.6097,2.0117,Act-1
1.6596,0,1.216,7.8646,0.0,0.62,1.9765,Act1
3.2317,0,1.1882,7.5278,0.0,0.6054,2.0165,Act1
2.8727,0,1.182,7.9028,77.0991,0.6193,2.045,Act1
4.5335,1,1.3092,7.6726,0.0,0.6783,2.0387,Act1
3.7621,0,1.2084,7.575,18.0108,0.6118,2.0469,Act-1
2.2678,0,1.1808,8.1042,60.6941,0.6193,2.0232,Act-1
5.5632,1,1.3597,7.8185,18.0108,0.6447,2.0519,Act-1
3.7265,0,1.1989,7.4352,42.6833,0.6185,2.0977,Act1
3.7265,0,1.1965,7.4352,42.6833,0.6185,2.0978,Act1
2.8129,0,1.2227,7.5351,18.0108,0.6242,2.0231,Act-1
4.3059,1,1.2651,7.4242,42.6833,0.6648,2.0969,Act1
1.5264,0,1.1687,7.4405,50.9079,0.645,1.996,Act-1
3.8381,1,1.4193,7.9401,32.81,0.7172,2.0433,Act1
3.8028,1,1.273,7.2273,16.7855,0.6624,2.1338,Act-1
3.5654,1,1.443,7.5417,18.0108,0.6498,2.0618,Act1
1.9366,0,1.2045,7.7244,36.0215,0.653,2.0716,Act1
3.5294,0,1.2041,7.7622,36.0215,0.7043,2.0648,Act1
2.1353,0,1.1999,7.6975,36.0215,0.6492,2.0686,Act1
3.448,0,1.1892,7.525,18.0108,0.6218,2.0675,Act-1
1.7268,0,1.1844,8.0152,0.0,0.6191,2.015,Act-1
3.8264,1,1.4655,7.8659,36.0215,0.671,2.1159,Act1
1.8993,0,1.2001,7.9737,36.0215,0.6378,1.947,Act1
2.3162,0,1.2285,7.7083,36.0215,0.62,2.0248,Act-1
3.3034,1,1.3373,7.74,60.6941,0.6398,2.0373,Act1
3.2872,1,1.4576,8.0,102.0297,0.6625,2.008,Act1
2.1119,0,1.2532,8.1538,42.6833,0.6373,1.992,Act1
2.4885,0,1.2607,7.9028,0.0,0.6449,1.9913,Act1
3.7711,1,1.2267,7.5957,0.0,0.6434,2.0694,Act1
3.0637,1,1.4433,7.9213,59.4689,0.6908,2.0215,Act-1
2.5199,0,1.216,7.7698,32.8972,0.6066,2.0169,Act1
2.5199,0,1.2044,7.7698,32.8972,0.6066,2.0165,Act1
2.7093,1,1.3486,7.8704,18.0108,0.6747,1.9808,Act-1
4.8086,1,1.3979,7.6167,36.0215,0.6495,2.1159,Act1
2.6748,1,1.3722,8.0694,146.0608,0.6486,2.0053,Act1
2.674,1,1.3486,7.8148,34.7963,0.671,1.9921,Act1
1.6842,0,1.2491,7.8696,75.5805,0.6562,2.0171,Act1
3.3961,1,1.3623,8.0178,42.6833,0.6982,2.0741,Act1
2.4925,0,1.2234,7.7407,0.0,0.6134,2.0329,Act1
4.6737,1,1.2865,7.8833,16.405,0.7245,2.0648,Act1
2.3937,0,1.3064,8.0104,0.0,0.7075,2.0515,Act1
3.3173,0,1.2819,7.5947,36.0215,0.6248,2.0971,Act-1
1.3353,0,1.2096,8.0167,78.4598,0.5972,2.0175,Act1
1.8842,1,1.3079,8.1006,34.7963,0.6442,2.0267,Act1
1.7253,0,1.1836,7.662,32.8972,0.627,1.9937,Act-1
3.762,1,1.3069,7.9254,18.0108,0.6741,2.035,Act1
3.7423,1,1.4574,7.6304,0.0,0.6665,2.0793,Act1
4.3683,1,1.3609,7.8657,0.0,0.6499,2.1145,Act1
2.5751,0,1.2432,7.7143,0.0,0.6307,2.0281,Act-1
2.051,0,1.1728,7.7586,0.0,0.6181,2.1311,Act1
2.3769,1,1.2729,7.4933,34.7963,0.6342,2.1339,Act-1
4.0366,1,1.433,7.6061,0.0,0.6743,2.0294,Act1
0.5924,0,1.0209,7.619,0.0,0.5807,2.032,Act-1
3.3111,0,1.0415,7.5208,0.0,0.7071,1.8772,Act-1
4.6133,1,1.3479,7.3333,0.0,0.6747,2.0684,Act1
1.7162,1,1.3596,7.5667,0.0,0.6279,2.0853,Act-1
3.7499,0,1.2101,7.6891,42.6833,0.6279,2.0742,Act-1
2.648,0,1.2294,7.6569,18.0108,0.6174,2.039,Act1
2.1487,0,1.2426,7.9417,18.0108,0.6188,2.0373,Act-1
1.8154,0,1.2287,7.9825,18.0108,0.6212,2.0081,Act-1
1.7185,0,1.2873,8.0538,60.6941,0.6252,1.9935,Act-1
4.4559,1,1.4816,7.6511,60.6941,0.6796,2.1255,Act-1
6.6874,1,1.4719,6.5503,18.0108,0.6421,2.1927,Act1
6.8111,1,1.5173,7.5072,18.0108,0.6799,2.1306,Act1
4.2237,1,1.3592,7.4596,18.0108,0.6461,2.1217,Act-1
4.8141,1,1.2822,6.9933,0.0,0.648,2.0304,Act1
4.4521,1,1.367,7.5972,18.0108,0.6579,2.0031,Act1
4.4254,1,1.4869,7.5677,18.0108,0.669,2.0504,Act1
4.3929,1,1.4343,7.7586,0.0,0.6408,2.1063,Act1
4.6994,1,1.3216,7.5735,0.0,0.6456,2.1132,Act1
2.7412,1,1.3829,7.9195,52.807,0.643,1.9707,Act1
1.7596,1,1.3783,8.3509,180.8571,0.6276,1.9707,Act1
2.2595,0,1.338,7.9253,36.0215,0.643,1.9696,Act1
1.921,0,1.215,7.8722,50.9079,0.6285,2.0116,Act-1
1.3809,0,1.2372,8.072,18.0108,0.6272,2.0472,Act-1
1.395,0,1.2139,7.7647,50.9079,0.6138,2.0177,Act-1
3.3504,0,1.1686,7.587,18.0108,0.6062,2.0294,Act-1
4.2261,1,1.3575,7.5417,18.0108,0.6769,2.067,Act1
2.7747,1,1.4321,7.7244,60.6941,0.6622,2.1355,Act1
4.1896,1,1.3227,7.5298,0.0,0.632,2.1394,Act-1
3.5375,0,1.165,7.5516,0.0,0.6211,2.021,Act-1
2.5049,0,1.2168,7.9043,32.8972,0.6387,1.9936,Act1
1.3808,0,1.216,7.8021,0.0,0.618,1.9836,Act1
6.2386,1,1.3855,7.4866,0.0,0.6838,2.0618,Act-1
3.0543,1,1.322,7.45,0.0,0.645,1.9902,Act1
4.1903,1,1.341,7.5903,0.0,0.6434,2.0379,Act1
3.72,0,1.1636,7.6076,0.0,0.6062,2.0488,Act1
3.3835,0,1.1509,7.566,0.0,0.6144,2.0195,Act1
3.2942,1,1.3148,7.9556,16.405,0.6615,2.0826,Act1
1.9546,1,1.2989,7.9672,34.7963,0.64,2.083,Act1
2.6512,1,1.3776,8.15,18.0108,0.6845,2.0616,Act1
4.3273,1,1.4061,8.0651,18.0108,0.6763,2.0713,Act1
1.7305,1,1.3031,7.8254,42.6833,0.653,2.0425,Act1
4.935,1,1.2977,7.3016,0.0,0.6438,2.0345,Act1
4.429,1,1.266,7.672,0.0,0.6246,2.0396,Act1
3.5186,1,1.5077,7.8684,95.3679,0.6463,2.1183,Act1
3.1412,1,1.5046,8.0806,126.9482,0.6567,2.1183,Act-1
2.7768,1,1.3619,7.9779,0.0,0.6395,2.0631,Act1
0.6836,0,1.206,7.8611,18.0108,0.6062,2.0169,Act1
3.3158,1,1.354,7.6135,60.6941,0.6422,2.1217,Act1
-3.2823,0,1.0329,7.947,262.7631,0.5799,2.0738,Act-1
-0.3339,0,1.1916,8.2609,49.3022,0.661,2.029,Act-1
5.756,1,1.6688,7.3765,0.0,0.726,2.0281,Act-1
2.0777,1,1.319,8.1019,18.0108,0.6511,2.0208,Act1
3.5999,1,1.4337,7.5521,18.0108,0.6519,2.0681,Act1
2.0362,1,1.3753,7.8211,75.5805,0.6275,2.0331,Act1
4.8794,1,1.4555,7.7269,0.0,0.7461,1.9979,Act1
3.9318,1,1.5362,7.5764,0.0,0.7467,2.0222,Act1
2.8671,1,1.3723,7.869,0.0,0.6434,2.0155,Act1
1.1605,0,1.2255,8.0556,18.0108,0.6566,1.9989,Act1
0.1352,0,1.073,7.8732,128.05,0.6185,2.126,Act-1
4.8851,1,1.5101,7.6306,18.0108,0.7065,2.1364,Act1
2.3177,1,1.3211,7.9194,60.6941,0.6818,2.0878,Act1
2.9237,1,1.3073,7.8003,0.0,0.6695,2.0956,Act1
3.9041,1,1.3345,7.6278,18.0108,0.669,2.0543,Act1
3.3499,1,1.3987,7.6449,18.0108,0.6842,2.0184,Act1
3.5674,1,1.4305,8.0574,18.0108,0.7105,2.0335,Act1
3.2276,1,1.4294,7.8943,18.0108,0.6998,2.0345,Act1
3.6604,1,1.4305,8.0574,18.0108,0.7105,2.0332,Act1
3.3207,1,1.4294,7.8943,18.0108,0.6998,2.0343,Act1
3.1203,1,1.5502,7.746,50.9079,0.6624,2.0519,Act1
3.1259,1,1.307,7.7759,0.0,0.678,2.0758,Act1
3.9563,0,1.1549,7.4828,42.6833,0.6192,2.08,Act1
-0.8528,0,1.2447,8.3667,18.0108,0.6388,2.1236,Act-1
-1.3425,0,1.2508,8.2029,18.0108,0.6441,2.1169,Act-1
1.7983,0,1.2447,8.3467,60.6941,0.6388,2.1053,Act-1
1.3086,0,1.2508,8.1812,60.6941,0.6441,2.1017,Act-1
1.289,0,1.2508,8.2246,60.6941,0.6413,2.0936,Act-1
1.2824,0,1.294,8.2353,42.6833,0.6614,2.074,Act-1
1.4193,0,1.259,8.0476,42.6833,0.6474,2.0674,Act-1
3.1116,1,1.1933,7.503,0.0,0.6479,2.0689,Act1
3.578,1,1.2654,7.8114,18.0108,0.6565,2.0696,Act1
0.7641,0,1.2803,8.2792,49.3022,0.6718,2.0455,Act-1
0.607,0,1.2149,8.0833,49.3022,0.6325,2.0426,Act-1
3.3173,1,1.2832,7.9637,68.9187,0.7133,1.9862,Act1
3.9084,1,1.2415,7.5694,0.0,0.6541,2.0655,Act1
0.4626,0,1.047,7.8333,0.0,0.593,1.8424,Act-1
1.2034,0,1.2084,8.0033,50.9079,0.6273,2.0601,Act-1
-1.5563,0,1.1441,8.3313,121.3882,0.6486,2.0592,Act-1
-0.5499,0,1.1102,8.294,36.0215,0.6589,2.0514,Act-1
-0.8444,1,1.1947,8.2841,78.7048,0.6779,2.0655,Act-1
5.1249,1,1.2863,7.4815,0.0,0.6424,2.1139,Act-1
2.1771,0,1.2324,8.0192,42.6833,0.6444,2.0976,Act-1
4.033,1,1.3956,7.8401,0.0,0.6786,2.0792,Act1
2.2783,1,1.4094,7.8654,0.0,0.6612,2.1078,Act1
2.5401,1,1.3026,7.6667,0.0,0.6381,2.0392,Act1
3.159,1,1.2571,7.3567,0.0,0.6866,2.0938,Act1
3.6074,1,1.3104,7.3542,0.0,0.6416,2.0568,Act1
4.6791,1,1.4992,7.7568,18.0108,0.6495,2.086,Act1
0.9986,0,1.2675,8.2719,42.6833,0.6665,2.0551,Act-1
3.6402,1,1.4423,7.7481,18.0108,0.6855,2.0449,Act1
2.7897,1,1.4315,7.7037,36.0215,0.6579,2.1239,Act1
4.0855,1,1.3583,7.8905,18.0108,0.6528,2.1143,Act1
2.9318,0,1.2668,7.8167,146.0608,0.6198,2.0174,Act-1
5.1178,1,1.3396,7.8699,54.0323,0.6902,2.0602,Act1
3.2417,1,1.447,7.7475,36.0215,0.6909,2.0783,Act1
4.1971,1,1.4545,7.7688,50.9079,0.7029,2.1326,Act-1
2.5445,1,1.4651,7.7381,52.6845,0.6769,2.0541,Act-1
1.0234,0,1.2336,7.9744,103.3774,0.6159,2.0131,Act-1
4.0972,1,1.607,7.7564,108.4777,0.7004,2.1231,Act1
1.0631,1,1.3478,8.2125,148.2979,0.7333,2.0597,Act-1
1.0631,1,1.3478,8.2125,148.2979,0.7333,2.0597,Act-1
2.8193,1,1.3426,8.1458,42.6833,0.6532,2.0348,Act1
1.7957,0,1.1343,8.0675,68.9187,0.6328,2.0274,Act-1
0.6144,1,1.2645,8.057,36.0215,0.647,2.1278,Act-1
4.8454,1,1.552,8.1349,49.6827,0.7418,2.1196,Act-1
5.5297,0,1.5,7.6859,0.0,0.639,2.0554,Act-1
5.0557,1,1.5206,8.2174,65.7944,0.6698,2.0691,Act1
0.0162,0,1.0419,8.358,32.8972,0.6185,1.8585,Act-1
1.2443,0,1.0367,8.0278,36.0215,0.5915,1.989,Act1
3.6632,1,1.3216,8.0056,60.6941,0.643,2.0716,Act1
1.298,0,1.1508,7.9278,60.6941,0.6293,2.0262,Act-1
3.2204,1,1.2427,7.9242,60.6941,0.6416,2.0282,Act1
1.1863,0,1.1509,8.2011,60.6941,0.6229,2.0262,Act1
2.7132,1,1.2505,7.9676,60.6941,0.6339,2.0953,Act1
2.9003,1,1.2622,7.9531,60.6941,0.6442,2.0925,Act1
1.8996,0,1.1523,8.0432,60.6941,0.6215,2.0263,Act-1
3.0135,0,1.1212,7.8978,60.6941,0.6226,2.0313,Act1
2.9464,1,1.2759,7.9731,60.6941,0.6472,2.026,Act-1
2.141,0,1.1273,7.9389,60.6941,0.6221,2.0367,Act1
2.9083,1,1.1914,7.9375,60.6941,0.6746,2.0244,Act-1
3.107,0,1.2223,7.9913,0.0,0.6552,1.9831,Act-1
0.4966,0,1.0317,8.0722,36.0215,0.625,1.9451,Act1
2.7589,0,1.1714,7.6096,0.0,0.626,2.0414,Act1
3.563,1,1.2647,7.6833,16.7855,0.6318,2.0791,Act1
2.5038,0,1.3142,8.2564,18.0108,0.6433,2.1164,Act1
2.4013,0,1.2309,8.2245,36.0215,0.6909,2.039,Act1
2.3795,0,1.1607,7.8621,18.0108,0.6351,2.0245,Act1
1.0773,0,1.0847,7.947,50.9079,0.5946,2.0531,Act-1
2.8877,0,1.2067,7.7105,50.9079,0.6228,2.0653,Act1
2.4923,1,1.4198,7.9444,0.0,0.6739,2.0449,Act1
1.982,1,1.3829,8.1348,65.7944,0.6435,2.0534,Act-1
4.3605,1,1.3946,7.6012,0.0,0.6538,2.0398,Act1
4.749,1,1.3971,7.7762,16.663,0.6868,2.0467,Act1
4.2364,1,1.3845,7.8125,16.663,0.6922,2.0436,Act1
5.5134,1,1.3851,7.8704,16.663,0.7567,2.0278,Act1
3.633,1,1.4266,7.756,0.0,0.6666,2.0843,Act1
3.0356,1,1.3092,7.8667,18.0108,0.6901,2.1282,Act1
3.909,1,1.3008,7.484,0.0,0.6549,2.1413,Act-1
3.9028,1,1.441,7.8654,0.0,0.6689,2.0726,Act1
2.7097,1,1.5375,8.0028,16.405,0.7045,2.1057,Act1
2.745,0,1.2664,7.8583,18.0108,0.6611,2.1183,Act1
2.3235,1,1.4398,8.1694,34.4157,0.7067,2.058,Act1
2.1256,1,1.3409,8.0278,32.8972,0.6936,2.0291,Act1
2.2981,1,1.3455,8.0227,32.8972,0.7096,2.0259,Act1
3.3465,1,1.3973,8.2335,34.4157,0.7424,2.0223,Act-1
1.982,1,1.3829,8.1348,65.7944,0.6435,2.0534,Act-1
1.5053,0,1.2661,8.0833,32.8972,0.6401,2.0031,Act1
2.2038,0,1.2006,7.8413,18.0108,0.6276,2.0404,Act-1
1.7062,0,1.2661,8.25,42.6833,0.6441,1.9906,Act1
-0.4634,0,1.1726,8.2133,170.7334,0.6065,2.047,Act-1
1.5053,0,1.2676,8.0833,32.8972,0.6401,2.0033,Act-1
2.2852,0,1.2692,8.1667,0.0,0.6383,2.0112,Act-1
3.1235,0,1.1634,8.0645,36.0215,0.6545,2.0512,Act1
3.3346,1,1.2927,7.862,36.0215,0.6428,2.0648,Act1
2.7162,0,1.1484,7.9474,36.0215,0.645,2.0971,Act1
3.0712,0,1.1426,7.9148,36.0215,0.642,2.0456,Act1
3.3047,0,1.1401,8.1801,36.0215,0.6228,2.0845,Act1
2.1163,1,1.2944,7.8133,18.0108,0.6327,2.0603,Act1
4.2407,1,1.2997,7.6413,0.0,0.7089,2.021,Act1
3.8807,1,1.3522,7.859,42.6833,0.626,2.1247,Act-1
2.4729,1,1.3506,7.7963,0.0,0.6544,2.0364,Act-1
2.366,1,1.3396,7.9221,0.0,0.7391,1.992,Act1
1.9642,1,1.3379,8.1894,0.0,0.6635,2.0187,Act1
1.5025,0,1.0497,8.2091,0.0,0.6663,1.8671,Act1
3.5993,1,1.382,7.7315,0.0,0.6765,2.0614,Act1
3.8601,1,1.4021,7.6344,18.0108,0.6606,2.0555,Act1
1.4551,0,1.1675,7.9559,111.7244,0.6192,2.0911,Act-1
4.7551,1,1.4281,7.6979,0.0,0.6938,2.0122,Act-1
3.106,1,1.3752,7.9653,0.0,0.6841,2.0651,Act-1
4.962,1,1.323,7.8148,18.0108,0.6514,2.1183,Act-1
4.464,1,1.3866,7.6276,0.0,0.6831,2.066,Act-1
4.823,1,1.3344,7.7827,36.0215,0.7021,2.0005,Act1
4.0511,1,1.3479,7.7222,36.0215,0.6639,2.031,Act1
0.6617,0,1.1243,8.0833,0.0,0.6643,1.801,Act-1
3.2954,1,1.37,7.7333,18.0108,0.6398,2.0667,Act1
3.0499,1,1.2875,7.6989,18.0108,0.6184,2.0632,Act1
2.2971,1,1.2609,7.8434,0.0,0.6347,2.0573,Act1
1.8915,0,1.161,7.8611,0.0,0.6089,2.0393,Act1
2.8109,1,1.3462,8.1136,68.9187,0.6461,2.0387,Act1
2.1854,1,1.4532,8.0804,34.4157,0.6631,2.1095,Act1
1.7807,1,1.4043,7.951,35.7765,0.6544,2.119,Act1
3.226,0,1.1029,8.0119,42.6833,0.6245,2.1396,Act1
3.4784,0,1.1021,7.9957,42.6833,0.6384,2.1393,Act-1
1.5224,0,1.1338,8.1432,50.9079,0.6438,2.0353,Act-1
2.0271,1,1.3377,8.1909,18.0108,0.6673,2.0989,Act1
2.3854,0,1.206,8.151,36.0215,0.6283,2.0233,Act1
1.8788,0,1.2456,8.1379,32.8972,0.6322,2.0177,Act-1
6.7085,1,1.3824,7.5171,31.672,0.6682,2.051,Act1
6.9415,1,1.3782,7.5042,31.672,0.6651,2.0476,Act-1
3.6517,1,1.2407,7.5238,0.0,0.639,2.0668,Act1
5.1631,1,1.49,7.7677,18.0108,0.681,2.0369,Act1
5.2857,1,1.4847,7.5909,18.0108,0.6775,2.0438,Act1
5.175,1,1.4847,7.5808,0.0,0.6775,2.0402,Act1
4.5354,1,1.4169,7.7849,18.0108,0.6676,2.0533,Act1
3.4276,1,1.3195,7.7101,18.0108,0.6466,2.033,Act1
3.8832,1,1.422,7.6556,18.0108,0.6488,2.0382,Act1
2.7809,1,1.4216,7.7069,18.0108,0.6502,2.0286,Act1
4.2801,1,1.3857,7.619,18.0108,0.6593,2.0279,Act1
4.8597,1,1.5589,7.6306,18.0108,0.6845,2.0533,Act1
4.4516,1,1.5186,7.6176,18.0108,0.6622,2.0621,Act1
4.7421,1,1.5186,7.6176,18.0108,0.6622,2.0603,Act1
3.7651,1,1.5186,7.6471,18.0108,0.6607,2.056,Act1
3.6222,1,1.5186,7.6471,18.0108,0.6607,2.056,Act-1
3.9127,1,1.5186,7.6471,18.0108,0.6607,2.0533,Act1
4.0146,1,1.4902,7.6302,18.0108,0.6808,2.0328,Act1
3.3944,1,1.3648,7.5294,18.0108,0.6459,2.0442,Act1
3.2647,1,1.368,7.5758,18.0108,0.6501,2.0307,Act1
3.8763,1,1.28,7.6,18.0108,0.6631,2.0241,Act1
3.7898,1,1.421,7.6543,18.0108,0.6512,2.0305,Act1
4.8566,1,1.5184,7.6048,18.0108,0.6588,2.0662,Act1
4.5266,1,1.5186,7.6176,18.0108,0.6622,2.0601,Act1
4.2635,1,1.518,7.6313,18.0108,0.6658,2.0551,Act1
3.3691,1,1.3995,7.5784,18.0108,0.6379,2.0517,Act1
3.7365,1,1.422,7.7179,18.0108,0.6571,2.0247,Act1
3.9423,1,1.4765,8.0084,36.0215,0.6848,2.1399,Act1
4.0972,1,1.5515,7.8111,36.0215,0.6868,2.1401,Act-1
3.8873,1,1.2974,7.9531,34.4157,0.7147,2.046,Act1
3.9807,1,1.4616,7.6379,0.0,0.646,2.1426,Act1
2.4399,0,1.2583,7.9147,18.0108,0.6572,2.0774,Act1
5.3964,1,1.6122,7.8111,0.0,0.7393,2.0725,Act1
2.7049,1,1.306,7.6957,32.8972,0.6688,2.0242,Act-1
4.103,1,1.4149,7.8189,18.0108,0.7106,1.9928,Act1
3.8301,1,1.5736,7.8423,0.0,0.7047,2.0715,Act1
4.4305,1,1.4246,7.7583,54.0323,0.6725,2.0862,Act1
3.1843,1,1.3121,7.7366,0.0,0.6564,2.0557,Act1
4.6256,1,1.3796,7.7745,16.663,0.7035,2.0386,Act1
5.8297,1,1.3982,7.625,18.0108,0.683,2.0628,Act-1
3.7448,1,1.3953,7.7333,18.0108,0.6559,2.0322,Act1
3.249,1,1.4515,7.5159,18.0108,0.6641,2.056,Act1
2.9458,1,1.386,7.7917,0.0,0.6512,2.0029,Act1
2.7123,1,1.3959,7.7628,0.0,0.6754,2.002,Act1
3.527,1,1.4306,8.2454,18.0108,0.71,2.052,Act1
4.2855,1,1.2577,7.9905,18.0108,0.6813,2.0109,Act1
4.4639,1,1.2808,7.5967,18.0108,0.6609,2.03,Act1
3.439,1,1.4834,8.5735,36.0215,0.6847,2.0584,Act1
3.5818,1,1.4834,8.5735,36.0215,0.6847,2.0576,Act-1
3.4607,1,1.4142,7.8125,16.405,0.6818,2.0518,Act1
2.6438,1,1.2604,7.9028,0.0,0.6735,2.0667,Act1
5.57,1,1.4966,7.5653,0.0,0.6606,2.0514,Act1
-0.1276,0,1.1296,7.8235,0.0,0.6091,2.0292,Act-1
1.6717,1,1.3132,8.2109,18.0108,0.6646,2.0314,Act-1
1.54,0,1.2559,8.1667,18.0108,0.6298,2.0205,Act1
2.3665,0,1.2271,8.1364,42.6833,0.616,2.0275,Act-1
4.0972,1,1.5515,7.8111,36.0215,0.6868,2.1401,Act-1
4.0771,1,1.4223,7.5833,18.0108,0.6485,2.0273,Act1
2.6935,0,1.208,7.7368,0.0,0.613,2.0036,Act1
-2.8308,0,1.0972,8.201,267.4502,0.6232,2.0405,Act-1
1.6439,1,1.2833,8.0148,170.7334,0.6534,2.0568,Act-1
1.8655,1,1.3045,8.0218,170.7334,0.6506,2.0704,Act-1
4.5435,1,1.4561,7.5632,0.0,0.6463,2.1389,Act1
1.4921,0,1.2301,8.0208,60.6941,0.62,2.0093,Act1
1.6689,0,1.26,7.9231,18.0108,0.634,2.0042,Act-1
1.627,1,1.3442,8.1542,49.3022,0.6718,2.0463,Act-1
3.2467,0,1.2672,7.4635,18.0108,0.6375,2.0894,Act1
1.8645,1,1.3183,8.0603,18.0108,0.6833,2.1375,Act-1
0.9925,1,1.3809,8.2135,31.2914,0.7198,1.9782,Act-1
2.3313,1,1.5149,7.693,65.7944,0.6776,2.1939,Act-1
1.2419,0,1.2838,8.0833,32.8972,0.6401,2.0023,Act-1
2.8346,1,1.2808,7.529,18.0108,0.6466,2.0517,Act1
2.3026,1,1.3316,7.9137,49.3022,0.6398,2.0546,Act1
4.6281,1,1.593,7.9363,63.3084,0.6923,2.0867,Act-1
5.2048,1,1.5801,7.9603,0.0,0.6906,2.0862,Act1
1.6135,0,1.2003,7.8434,60.6941,0.6248,2.009,Act-1
4.4825,1,1.3885,7.6054,42.6833,0.6384,2.0766,Act-1
2.2251,0,1.299,7.8889,0.0,0.6297,2.0017,Act1
2.6065,0,1.262,8.3905,0.0,0.6545,2.0763,Act-1
1.2816,0,1.0497,8.4167,18.0108,0.6232,1.9083,Act-1
-0.0208,0,1.0228,7.7759,0.0,0.6172,2.0294,Act1
3.7725,0,1.2657,7.9811,0.0,0.7188,2.0337,Act1
2.1205,0,1.0751,8.0807,0.0,0.6673,1.9989,Act1
3.8123,1,1.3682,8.7778,0.0,0.7127,2.0628,Act1
4.5303,1,1.4153,8.0158,18.0108,0.6807,2.0739,Act-1
0.7341,0,1.2556,8.6094,0.0,0.6307,2.0418,Act-1
0.6066,1,1.4233,7.9936,16.7855,0.6838,2.1076,Act1
4.468,1,1.3142,7.2778,0.0,0.6823,2.0645,Act1
3.9646,0,1.0,8.2222,0.0,0.8731,1.9102,Act1
0.6174,0,1.2314,8.6019,103.3774,0.687,2.0515,Act-1
2.4081,1,1.4001,8.0764,65.7944,0.7507,2.0224,Act-1
1.921,0,1.215,7.8722,50.9079,0.6285,2.0116,Act-1
1.5931,1,1.3374,7.6528,54.0323,0.7238,1.9962,Act-1
-0.2869,0,1.2681,8.7418,65.7072,0.7309,2.0871,Act-1
-0.7971,0,1.2053,8.4327,246.3139,0.649,2.1542,Act-1
3.5254,1,1.5197,7.9456,0.0,0.7373,2.0851,Act-1
3.1944,1,1.3913,7.5505,18.0108,0.7016,2.0315,Act-1
4.6508,1,1.3455,7.4066,0.0,0.6721,2.0344,Act-1
6.3309,1,1.3336,7.9108,0.0,0.8435,2.0333,Act-1
5.6669,1,1.3282,7.7911,0.0,0.7689,2.0145,Act1
3.8184,1,1.4329,8.0644,42.6833,0.7018,2.0515,Act-1
4.6524,1,1.2569,7.4324,0.0,0.6693,2.0525,Act1
4.1064,1,1.2669,7.9306,42.6833,0.6703,2.0752,Act-1
4.1661,1,1.3139,7.5905,0.0,0.6805,2.0881,Act-1
6.2898,1,1.3197,7.6333,0.0,0.7639,2.0054,Act-1
3.998,0,1.1663,7.3722,0.0,0.6351,2.0305,Act-1
5.0654,1,1.3233,7.7292,0.0,0.7469,2.02,Act-1
5.8311,1,1.3233,7.6597,0.0,0.7775,1.9898,Act1
3.1944,1,1.3913,7.5505,18.0108,0.7016,2.0315,Act1
3.9961,1,1.3904,7.4217,18.0108,0.7005,2.0605,Act1
4.4674,1,1.3515,7.4418,0.0,0.7092,2.0573,Act-1
4.2237,1,1.3592,7.4596,18.0108,0.6461,2.1217,Act-1
3.3158,1,1.354,7.6135,60.6941,0.6422,2.1217,Act-1
1.8105,1,1.3765,7.7049,36.0215,0.7524,1.9899,Act1
3.5781,1,1.3125,7.4918,42.6833,0.6814,2.0667,Act-1
3.3302,1,1.4379,7.6035,16.7855,0.7339,2.0797,Act-1
5.1749,1,1.3456,7.5411,0.0,0.7372,2.1048,Act1
1.6001,1,1.3146,7.3987,3.1243,0.7257,2.0864,Act-1
3.8207,1,1.3146,7.4183,0.0,0.7368,2.023,Act1
4.4103,1,1.5343,7.6815,59.2238,0.683,2.0745,Act-1
2.6827,1,1.2383,7.6667,85.3667,0.6523,2.1517,Act1
2.6827,1,1.2383,7.6667,85.3667,0.6523,2.1517,Act-1
2.8588,1,1.3102,8.209,0.0,0.7221,2.0104,Act-1
3.3479,1,1.2182,7.7402,42.6833,0.6246,2.0511,Act1
-0.876,0,1.208,8.4525,249.4382,0.7548,1.9887,Act-1
3.3619,0,1.2821,7.94,0.0,0.8983,1.9524,Act-1
-0.2181,0,1.2974,8.2308,49.6827,0.6092,1.8669,Act-1
-0.9877,0,1.2422,8.3411,325.0187,0.6236,2.1502,Act-1
-1.6509,0,1.2563,8.5152,288.9972,0.64,2.1493,Act-1
-0.7334,0,1.2581,8.4271,246.3139,0.6433,2.1498,Act-1
3.7472,1,1.3947,7.5977,18.0108,0.6907,2.0305,Act1
-0.4753,0,1.2561,8.2595,203.6306,0.6336,2.1487,Act-1
-0.4721,0,1.0821,8.3704,114.2519,0.5656,1.8926,Act-1
0.4334,0,1.3106,8.0526,50.9079,0.6616,2.0551,Act1
2.4399,1,1.4621,7.8386,0.0,0.7101,2.0766,Act1
2.9798,1,1.4623,7.904,0.0,0.7353,2.0666,Act1
1.2845,1,1.4713,8.0799,0.0,0.6901,2.0774,Act1
3.6837,1,1.2997,7.5978,0.0,0.7052,2.0316,Act1
1.8925,1,1.3381,8.1839,82.5799,0.65,2.0319,Act-1
4.1552,0,1.1527,7.5734,18.0108,0.6436,2.0792,Act1
1.6626,0,1.2092,8.0353,60.6941,0.6034,2.032,Act-1
0.5459,0,1.2547,7.9487,0.0,0.6195,2.0577,Act-1
0.2074,0,1.2361,7.8125,0.0,0.6112,2.0887,Act-1
1.4772,0,1.0648,7.7273,0.0,0.7288,1.7925,Act1
1.8902,0,1.0585,7.6944,0.0,0.7671,1.779,Act1
3.7125,1,1.4458,7.8954,36.0215,0.6706,2.132,Act1
2.7911,1,1.4342,7.6381,18.0108,0.6659,2.0511,Act1
0.5797,1,1.3725,7.9896,65.7944,0.6847,2.0074,Act1
3.8155,1,1.5314,7.58,0.0,0.7071,2.0221,Act1
3.9927,1,1.4013,7.4286,36.0215,0.6619,2.0504,Act1
2.3021,1,1.3399,7.6944,32.8972,0.6454,2.0837,Act1
4.074,1,1.4084,7.5309,18.0108,0.6708,2.0676,Act1
3.1586,1,1.4084,7.5679,18.0108,0.6691,2.0663,Act1
3.3442,1,1.4107,7.5267,18.0108,0.6793,2.0659,Act1
3.3348,1,1.3687,7.42,16.7855,0.6777,2.0219,Act1
2.1607,1,1.3399,7.6944,32.8972,0.6454,2.0823,Act1
2.4038,1,1.3352,7.9133,32.8972,0.6441,2.0828,Act1
2.024,1,1.3399,7.7361,32.8972,0.643,2.0774,Act1
2.4362,1,1.3341,7.9133,32.8972,0.6441,2.0829,Act1
2.0861,1,1.3095,7.6957,32.8972,0.6641,2.0213,Act1
3.5837,1,1.3915,7.7937,68.9187,0.6635,2.1408,Act-1
4.8485,1,1.558,7.9464,18.0108,0.6941,2.1404,Act1
-0.4056,0,1.2605,8.4529,246.3139,0.6586,2.1462,Act-1
-0.1993,0,1.2446,8.2063,239.6521,0.6248,2.1516,Act-1
2.1288,1,1.4783,8.2412,42.6833,0.7023,2.165,Act-1
3.9898,1,1.375,7.4167,0.0,0.6603,2.0971,Act1
-0.1083,0,1.2588,8.2753,203.6306,0.6389,2.1489,Act-1
3.5464,1,1.504,7.4417,0.0,0.6941,2.1363,Act1
4.1839,1,1.4351,7.5259,0.0,0.6669,2.1427,Act1
1.4296,0,1.229,7.6333,0.0,0.594,2.0196,Act-1
2.5348,1,1.3077,8.0764,18.0108,0.641,2.0488,Act1
-0.2091,0,1.0558,8.6667,42.6833,0.56,1.8787,Act-1
2.6073,0,1.1715,7.6535,85.3667,0.6148,2.0831,Act-1
5.0377,1,1.4034,7.4497,0.0,0.7273,2.0545,Act1
3.4023,1,1.3867,7.7467,42.6833,0.6613,2.0453,Act-1
3.7997,1,1.401,7.4206,0.0,0.6684,2.0353,Act1
4.5171,1,1.401,7.3413,0.0,0.6968,2.0347,Act-1
3.5512,1,1.3262,7.5234,0.0,0.6769,2.057,Act1
1.9646,0,1.2629,7.4167,0.0,0.6337,2.0109,Act-1
3.4031,1,1.2563,7.4008,0.0,0.6554,2.058,Act1
2.0779,0,1.233,8.1354,0.0,0.6232,2.0158,Act1
3.6183,1,1.3215,7.6681,42.6833,0.6733,2.0614,Act-1
4.5215,1,1.4823,7.373,0.0,0.6814,2.0291,Act1
1.6629,1,1.3198,7.6508,34.7963,0.6376,2.0473,Act1
1.96,1,1.4173,7.4833,16.7855,0.6502,2.0515,Act-1
2.946,1,1.3129,7.8472,0.0,0.6716,2.0423,Act1
3.0417,1,1.5174,7.6989,34.7963,0.6827,2.0408,Act1
4.0909,1,1.3467,7.6111,42.6833,0.703,2.0572,Act-1
3.8596,1,1.3571,7.35,0.0,0.6878,2.0624,Act1
3.5266,1,1.5292,7.8011,0.0,0.6734,2.1071,Act1
2.7386,1,1.2844,7.4259,0.0,0.6691,2.0104,Act1
2.6415,1,1.2844,7.4259,0.0,0.6691,2.0138,Act-1
-0.2314,1,1.2347,7.8143,93.5913,0.6909,2.0467,Act-1
1.6222,1,1.361,7.9127,32.8972,0.6646,2.1726,Act1
2.7707,1,1.3614,7.6061,0.0,0.6587,2.0272,Act1
5.9818,1,1.4018,7.481,31.672,0.6807,2.0476,Act1
0.2878,1,1.2347,8.0441,93.5913,0.6867,2.0467,Act-1
2.0653,1,1.4476,7.6739,34.7963,0.6644,2.0736,Act1
2.2921,0,1.165,7.7579,42.6833,0.6197,2.0268,Act1
2.1612,0,1.2139,7.9477,0.0,0.646,1.9642,Act-1
2.6086,1,1.3079,7.5042,0.0,0.6448,2.0576,Act-1
3.0108,1,1.3152,7.5972,0.0,0.6712,2.0379,Act1
5.9715,1,1.3813,7.4866,0.0,0.6838,2.0794,Act-1
3.5583,1,1.3783,7.4474,0.0,0.6519,2.0491,Act1
1.0654,1,1.335,8.1792,34.7963,0.6742,2.0462,Act1
3.5238,1,1.3144,8.303,16.405,0.6531,2.0819,Act-1
5.0656,1,1.5084,7.4205,0.0,0.6626,2.1376,Act1
4.893,1,1.5572,7.3939,0.0,0.6888,2.1378,Act1
3.854,1,1.5336,8.3414,0.0,0.7081,2.0955,Act1
4.0221,1,1.4158,7.6867,0.0,0.7169,2.0132,Act1
3.4412,1,1.4204,7.936,36.0215,0.7242,2.0269,Act1
2.8541,0,1.243,7.7971,18.0108,0.6825,2.046,Act1
4.7368,1,1.485,7.9409,18.0108,0.7398,2.0258,Act-1
3.7075,1,1.4572,7.75,18.0108,0.6674,2.0774,Act1
2.5558,1,1.3234,7.8254,18.0108,0.6657,2.0443,Act-1
-0.9469,0,1.1974,8.4103,274.1108,0.7261,1.9991,Act-1
2.4924,1,1.399,7.9907,59.0883,0.7005,2.0479,Act1
3.6705,0,1.196,7.5673,57.2784,0.6354,2.1832,Act1
4.3241,1,1.4064,7.4881,0.0,0.6672,2.1433,Act1
2.1531,1,1.4584,7.8194,57.2784,0.6767,2.0585,Act1
7.1623,1,1.5792,8.055,36.0215,0.6913,2.0804,Act1
2.6161,1,1.2404,7.625,0.0,0.6099,2.0894,Act-1
1.6615,0,1.0,7.7778,0.0,0.6468,1.8941,Act-1
3.5174,1,1.3745,7.523,0.0,0.6522,2.0643,Act1
2.5911,1,1.3162,7.86,18.0108,0.6845,2.0208,Act-1
1.9165,1,1.3356,8.0862,32.81,0.6557,2.0439,Act-1
-2.5885,0,1.0305,8.8796,188.7441,0.5687,2.0146,Act-1
-0.8516,0,1.2196,7.9286,39.1458,0.6197,2.0127,Act-1
1.369,0,1.2196,7.9444,36.0215,0.6253,2.0127,Act1
-6.7309,0,1.005,8.3611,433.4965,0.5725,2.0738,Act-1
-6.2631,0,1.0,8.2342,405.6996,0.5735,2.0824,Act-1
-6.3019,0,1.0169,8.4813,481.954,0.5782,2.0544,Act-1
-6.424,0,1.0121,8.4437,524.6373,0.5733,2.0545,Act-1
1.1701,1,1.3287,7.713,67.6935,0.6515,2.042,Act-1
-2.4828,0,1.0125,8.1775,164.0715,0.5866,2.0926,Act-1
1.14,1,1.5633,8.1437,674.2969,0.647,2.107,Act-1
1.3778,1,1.2978,7.808,33.1905,0.64,2.0788,Act1
2.7709,1,1.3589,7.6374,34.7963,0.709,1.9885,Act1
2.3217,1,1.2732,7.529,18.0108,0.6402,2.1127,Act-1
1.9391,0,1.1562,7.9921,42.6833,0.6419,2.0211,Act-1
1.6932,0,1.1736,7.7576,36.0215,0.6434,2.0099,Act-1
1.8854,0,1.1494,7.7583,42.6833,0.6337,2.0153,Act-1
4.028,1,1.2095,7.3333,0.0,0.6583,2.0593,Act1
2.1099,1,1.4041,8.3095,0.0,0.7358,2.1033,Act-1
2.9944,1,1.3805,8.0952,35.899,0.6945,2.1308,Act1
4.1736,1,1.5269,8.2532,0.0,0.755,2.0243,Act1
3.8352,1,1.5386,7.6932,0.0,0.8034,1.9965,Act1
3.4684,1,1.5386,7.8623,0.0,0.7747,2.0084,Act1
3.1403,1,1.5347,7.6597,0.0,0.7519,2.0118,Act1
2.7585,1,1.5501,7.9327,0.0,0.7676,2.0432,Act1
3.9414,1,1.5371,7.6341,0.0,0.8189,1.9937,Act1
3.0351,1,1.5594,7.7847,0.0,0.7908,2.0133,Act1
4.1736,1,1.523,8.2532,0.0,0.755,2.0239,Act1
3.8352,1,1.5371,7.6932,0.0,0.8034,1.997,Act1
3.4684,1,1.5371,7.8623,0.0,0.7747,2.0084,Act1
5.1072,1,1.7035,7.5402,0.0,0.8113,2.0496,Act1
4.1884,1,1.647,7.5769,0.0,0.7793,2.1324,Act1
2.3147,1,1.5141,7.6508,16.7855,0.7699,1.9341,Act1
3.1623,1,1.5141,7.619,0.0,0.8186,1.9172,Act1
2.9504,1,1.513,7.68,0.0,0.7646,1.9918,Act1
3.6484,1,1.6153,7.64,0.0,0.7802,1.9921,Act1
2.9758,1,1.5141,7.619,0.0,0.8186,1.9242,Act1
1.6609,1,1.4632,7.7083,0.0,0.7877,1.9118,Act1
-9.7891,1,1.2322,8.0066,60.6941,1.1278,2.0936,Act-1
-0.3504,0,1.1951,8.4144,136.2746,0.7184,2.0486,Act-1
0.318,1,1.2388,8.2374,18.0108,0.7049,2.0558,Act-1
0.0626,1,1.2455,8.2043,60.6941,0.704,2.0548,Act-1
4.0089,1,1.4047,7.6029,18.0108,0.6906,2.0265,Act1
2.4728,0,1.1693,7.5762,60.6941,0.6358,2.0989,Act-1
4.3936,1,1.5605,7.8841,18.0108,0.6658,2.1252,Act1
1.7867,0,1.1365,8.1422,42.6833,0.6274,2.0673,Act1
2.8861,1,1.352,7.8433,17.8882,0.6996,2.0562,Act1
0.7254,0,1.2114,8.256,16.7855,0.7051,1.9703,Act-1
-0.1111,0,1.2185,8.2821,16.7855,0.6407,1.9708,Act-1
1.8844,1,1.3875,7.8994,34.7963,0.7101,2.0236,Act1
0.2328,0,1.2129,8.1905,0.0,0.634,1.9823,Act-1
-0.8075,0,1.195,8.3889,85.3667,0.614,1.9959,Act-1
1.4344,0,1.2262,8.0167,0.0,0.6601,2.0165,Act-1
1.1437,0,1.237,8.0595,0.0,0.6689,2.002,Act-1
1.5704,0,1.2467,8.1667,32.8972,0.6514,2.078,Act-1
1.4166,0,1.2502,7.9667,32.8972,0.6528,2.0778,Act-1
1.6239,0,1.2252,8.2859,0.0,0.7049,2.0788,Act-1
3.2979,1,1.3795,7.7806,0.0,0.724,2.0318,Act-1
0.1663,0,1.0706,8.5083,0.0,0.6008,1.8524,Act-1
1.1755,0,1.2561,7.7361,50.9079,0.7119,1.9784,Act-1
0.2518,0,1.2819,8.0449,54.0323,0.7036,2.0618,Act-1
2.1486,0,1.1771,7.7319,78.7048,0.6688,2.0023,Act-1
2.2288,1,1.3357,8.0988,54.0323,0.7178,2.03,Act-1
2.2405,1,1.3278,7.8261,36.0215,0.7176,2.0154,Act-1
1.0924,0,1.2628,8.0882,36.0215,0.7189,1.994,Act-1
1.6711,1,1.3328,7.7937,36.0215,0.7123,2.0176,Act-1
2.2288,1,1.3455,8.0988,54.0323,0.7178,2.03,Act-1
2.2001,1,1.4212,7.9829,0.0,0.7578,2.0083,Act-1
0.5494,1,1.3889,8.3007,18.0108,0.7117,2.0949,Act-1
0.9538,1,1.3492,8.3708,18.0108,0.7704,2.0161,Act-1
1.1746,1,1.3889,8.2572,60.6941,0.7025,2.0956,Act1
1.3792,1,1.3386,8.3273,60.6941,0.7586,1.997,Act-1
1.031,1,1.3572,8.2841,60.6941,0.7326,2.0172,Act-1
3.2955,1,1.3212,7.8937,42.6833,0.6649,2.0525,Act1
0.8062,0,1.2457,8.6028,49.3022,0.7308,2.0993,Act-1
1.706,0,1.2218,8.9611,49.3022,0.7047,2.0986,Act1
1.5735,0,1.2243,8.1667,60.6941,0.6192,2.0938,Act-1
1.9572,0,1.2205,8.0064,42.6833,0.6559,2.0782,Act-1
2.4864,1,1.2736,7.7442,77.4796,0.656,2.134,Act-1
2.3713,1,1.3162,7.7636,77.4796,0.6631,2.1223,Act-1
4.0164,1,1.3384,7.4806,0.0,0.7058,1.9948,Act1
3.1747,1,1.3913,7.7173,36.0215,0.7081,2.0659,Act1
3.073,1,1.3913,7.7659,36.0215,0.6971,2.0662,Act1
4.0572,1,1.2846,8.4593,18.0108,0.6681,2.007,Act1
4.1068,1,1.5386,8.0133,18.0108,0.7029,2.128,Act-1
1.7846,1,1.3688,7.7244,0.0,0.653,2.0964,Act1
3.3142,1,1.5155,7.8081,82.5799,0.7042,2.0366,Act1
2.3873,1,1.3536,8.45,18.0108,0.6492,2.0485,Act1
4.1125,1,1.4066,7.8727,0.0,0.7088,2.0472,Act-1
2.3391,1,1.5058,7.7798,60.6941,0.688,2.0844,Act1
2.6923,1,1.5457,7.8155,18.0108,0.7123,2.0825,Act1
1.7918,1,1.4561,7.9167,36.0215,0.6865,2.0811,Act1
2.7548,1,1.4079,7.6319,32.8972,0.6867,2.037,Act1
2.1414,1,1.4816,7.942,42.6833,0.6829,2.0302,Act-1
3.234,1,1.4495,8.143,81.3192,0.711,2.0664,Act1
3.0541,1,1.3155,8.0631,0.0,0.7193,2.024,Act1
-0.9512,0,1.1217,8.5238,36.0215,0.6322,1.9719,Act-1
3.7348,1,1.3029,7.7984,57.2784,0.6463,2.0527,Act-1
3.5005,1,1.3859,7.6706,18.0108,0.6746,2.0429,Act1
1.1092,1,1.3371,8.0313,18.0108,0.6404,2.0641,Act1
3.7098,1,1.4359,7.9128,18.0108,0.7493,2.0256,Act1
3.6101,1,1.4359,7.9598,18.0108,0.7385,2.0267,Act1
2.8608,1,1.406,7.8889,18.0108,0.7339,2.0142,Act1
1.9255,1,1.3382,7.8353,18.0108,0.6793,2.0158,Act1
1.7317,1,1.4694,8.0433,0.0,0.6829,2.0911,Act1
2.0668,1,1.4365,7.8556,32.8972,0.7267,2.0355,Act1
3.0481,1,1.4325,7.6875,32.8972,0.7335,2.0353,Act1
3.0574,1,1.4479,8.0694,0.0,0.7311,2.0295,Act1
2.8669,1,1.4405,8.0156,0.0,0.7366,2.0292,Act1
4.1423,1,1.4974,7.5977,18.0108,0.669,2.0553,Act1
3.5453,1,1.4991,7.748,18.0108,0.7102,2.0544,Act1
-1.3944,0,1.2261,8.7292,50.7854,0.6648,1.9621,Act-1
3.8939,1,1.4226,7.7625,34.7963,0.7069,2.0811,Act1
4.7347,1,1.343,7.6782,0.0,0.6835,2.1233,Act1
3.8022,1,1.3721,7.7892,18.0108,0.6828,2.0666,Act1
1.6179,1,1.3778,7.9815,18.0108,0.6605,2.0701,Act1
1.9243,1,1.3936,8.1133,18.0108,0.6851,2.0702,Act1
4.2665,1,1.476,8.0278,18.0108,0.6739,2.1357,Act-1
-0.5215,0,1.2531,8.3081,190.3069,0.6314,2.0767,Act-1
1.9531,0,1.1445,7.7222,42.6833,0.6306,2.027,Act-1
3.8271,1,1.1312,7.6358,42.6833,0.6771,2.1239,Act1
1.9693,1,1.3747,7.7644,16.7855,0.686,2.0937,Act-1
2.4001,1,1.4011,7.6111,16.7855,0.679,2.0391,Act1
4.0919,1,1.5446,7.6197,18.0108,0.6923,2.0905,Act-1
-0.896,0,1.2264,8.2451,125.1407,0.6328,1.9628,Act-1
-1.0422,0,1.2264,8.3627,93.4688,0.6356,1.9624,Act-1
1.3831,0,1.2467,7.8295,60.6941,0.625,2.0661,Act-1
1.4219,1,1.1848,7.2292,248.9256,0.6152,2.1425,Act-1
3.8205,1,1.3365,7.3016,0.0,0.6954,2.0603,Act1
-0.026,0,1.1415,7.7619,18.0108,0.7063,1.7154,Act-1
3.353,1,1.324,8.2649,0.0,0.6532,2.0671,Act1
4.5248,1,1.4732,7.3182,0.0,0.6888,2.0688,Act1
3.7602,1,1.3928,7.3182,0.0,0.6733,2.0694,Act1
4.5157,1,1.4728,7.8974,18.0108,0.6816,2.1397,Act1
3.3642,1,1.4526,7.6275,18.0108,0.6664,2.0961,Act1
2.327,1,1.4115,7.7556,18.0108,0.6565,2.0835,Act1
3.6636,1,1.3916,7.6512,16.7855,0.6737,2.0678,Act-1
4.7294,1,1.2505,7.4456,0.0,0.6643,2.0594,Act1
3.9525,1,1.3506,7.3083,0.0,0.6887,2.024,Act1
4.0026,1,1.3829,7.3,0.0,0.6887,2.0603,Act-1
5.3084,1,1.4562,7.6136,85.3667,0.6639,2.1278,Act1
5.5253,1,1.4346,7.4762,18.0108,0.6772,2.1447,Act1
1.6066,0,1.2047,7.4762,0.0,0.6475,2.0674,Act1
2.8286,1,1.3362,7.675,85.3667,0.6758,2.1571,Act1
1.0311,1,1.2048,7.9715,54.0323,0.6642,2.069,Act-1
5.4368,1,1.3307,6.942,0.0,0.6946,2.0927,Act1
5.0244,1,1.3308,7.2576,0.0,0.6895,2.0927,Act1
4.1661,1,1.3139,7.5905,0.0,0.6805,2.0881,Act-1
3.0653,1,1.3795,7.7739,59.4689,0.672,2.022,Act-1
4.1652,1,1.3268,7.4509,0.0,0.6903,2.0771,Act-1
4.0342,1,1.2565,7.4066,0.0,0.6721,2.0629,Act1
2.3707,0,1.3011,7.4048,0.0,0.6867,1.9997,Act-1
2.9798,0,1.1588,7.6833,42.6833,0.6278,2.0759,Act-1
1.1609,0,1.232,8.1282,42.6833,0.6415,2.1239,Act-1
1.3083,1,1.3257,7.7692,18.0108,0.6602,2.0488,Act-1
3.19,1,1.3749,7.625,0.0,0.68,2.0715,Act1
3.6553,1,1.5539,7.6765,18.0108,0.685,2.1487,Act1
3.4642,1,1.5325,7.5885,16.7855,0.6777,2.074,Act1
2.8994,1,1.3389,8.0563,36.0215,0.6476,2.1024,Act1
4.0837,1,1.5258,7.6559,18.0108,0.6819,2.1406,Act1
3.7477,1,1.5228,7.5104,18.0108,0.6742,2.1406,Act1
4.5076,1,1.4783,7.7967,52.6845,0.6565,2.0883,Act1
4.1423,1,1.4444,7.7407,36.0215,0.6796,2.0715,Act1
3.513,1,1.3917,7.6071,18.0108,0.6972,2.0645,Act1
1.5845,1,1.3506,7.8409,42.6833,0.6457,2.1404,Act1
4.6834,1,1.5313,7.8281,18.0108,0.6808,2.1423,Act-1
4.0849,1,1.4104,7.5771,36.0215,0.6637,2.0975,Act1
5.7892,1,1.3111,7.3972,0.0,0.6759,2.0752,Act1
4.4901,1,1.3113,7.9256,0.0,0.6657,2.0752,Act1
2.8601,1,1.3211,7.6194,0.0,0.6688,2.0844,Act1
3.5639,1,1.3244,7.2917,0.0,0.6743,2.0692,Act1
3.3887,1,1.3383,7.3,0.0,0.6716,2.0648,Act1
2.8961,1,1.3383,7.35,0.0,0.6694,2.0621,Act1
-0.0611,0,1.2217,8.2821,18.0108,0.6407,1.9632,Act-1
1.4598,1,1.2294,7.8468,50.9079,0.6426,2.0566,Act1
1.8731,1,1.4135,8.1111,42.6833,0.6701,2.0569,Act1
0.0089,0,1.2852,8.4762,32.8972,0.6472,1.9657,Act-1
0.318,1,1.2388,8.2374,18.0108,0.7049,2.0558,Act-1
0.0626,1,1.2455,8.2043,60.6941,0.704,2.0548,Act-1
0.9446,0,1.1299,8.2847,0.0,0.7907,1.6975,Act-1
-1.0155,0,1.1305,8.3652,172.2961,0.6432,2.0443,Act-1
3.0922,1,1.5237,7.887,18.0108,0.7109,2.0946,Act1
4.1513,1,1.434,8.5918,54.0323,0.6893,2.0365,Act-1
3.9333,1,1.6307,7.6845,34.6738,0.7273,2.0116,Act1
3.1189,1,1.5051,7.7172,18.0108,0.6819,2.1086,Act1
3.4227,1,1.3052,7.625,18.0108,0.7141,2.0267,Act1
-1.4838,1,1.3827,8.2083,178.958,0.6332,2.0378,Act-1
2.6297,1,1.3035,7.6049,36.0215,0.6376,2.0752,Act-1
1.9977,0,1.1914,7.6625,18.0108,0.6287,1.9947,Act1
-0.0875,0,1.1914,7.6458,21.1351,0.6228,2.0019,Act-1
0.3068,0,1.2411,8.2037,36.0215,0.6183,2.0031,Act-1
2.4451,0,1.2378,7.4097,18.0108,0.624,2.0316,Act1
1.0324,0,1.2321,8.0,103.3774,0.6159,2.0203,Act-1
1.409,0,1.2378,7.7361,60.6941,0.6219,2.0201,Act-1
2.2189,0,1.0,7.1667,18.0108,0.5813,1.9468,Act1
2.0398,0,1.2443,7.5128,18.0108,0.6184,2.0244,Act-1
-3.513,0,1.0,7.9505,262.7631,0.5742,2.0708,Act-1
0.3088,0,1.2378,8.2949,146.0608,0.613,2.0114,Act-1
0.676,0,1.2437,8.0556,103.3774,0.6193,2.011,Act-1
2.4661,0,1.0,7.1806,18.0108,0.5945,2.0094,Act1
2.732,0,1.2139,7.7413,18.0108,0.669,2.0741,Act1
3.6647,1,1.5374,7.7,18.0108,0.7219,2.1452,Act1
3.4497,1,1.479,7.7619,18.0108,0.7141,2.0546,Act1
3.4497,1,1.5146,7.7619,18.0108,0.7141,2.0565,Act1
2.9361,1,1.5141,7.7895,18.0108,0.7172,2.128,Act1
2.9912,1,1.4851,7.8413,18.0108,0.6841,2.128,Act1
3.1416,1,1.5141,7.7018,18.0108,0.757,2.1225,Act1
2.5807,0,1.4358,7.9633,18.0108,0.6983,2.0105,Act1
3.0367,1,1.5225,7.7895,18.0108,0.7172,2.1291,Act1
3.0975,1,1.4987,7.5784,18.0108,0.6991,2.1287,Act-1
3.2378,1,1.5283,7.5463,18.0108,0.704,2.1434,Act1
3.0914,1,1.3099,7.8041,36.0215,0.735,2.0227,Act1
1.9408,0,1.2305,8.0357,60.6941,0.6375,2.1019,Act-1
3.2108,1,1.3634,7.8889,60.6941,0.6715,2.1053,Act1
4.282,1,1.4683,8.0801,60.6941,0.673,2.047,Act1
3.033,0,1.2183,8.0267,60.6941,0.61,2.0327,Act1
3.6107,1,1.3327,7.4649,18.0108,0.6519,2.0417,Act-1
3.9599,1,1.4403,7.4444,18.0108,0.699,2.1253,Act-1
2.1985,1,1.4376,8.0938,18.0108,0.696,2.0197,Act1
2.7734,1,1.4227,7.8333,52.807,0.6786,2.0384,Act1
4.207,1,1.3127,8.2538,18.0108,0.6472,2.041,Act1
4.1986,1,1.402,7.3417,18.0108,0.6737,2.0349,Act1
0.7253,0,1.2629,7.5167,18.0108,0.6281,1.9964,Act-1
4.2922,1,1.4323,7.35,18.0108,0.6737,2.0432,Act1
3.819,1,1.3729,7.425,18.0108,0.6473,2.0492,Act-1
3.6762,1,1.3554,7.3333,18.0108,0.6577,2.0379,Act1
1.1215,1,1.3498,7.8542,33.1905,0.6445,2.056,Act-1
1.6955,1,1.3152,7.7138,33.1905,0.6448,2.0707,Act1
3.6375,1,1.3063,7.8383,32.81,0.686,2.0692,Act-1
2.3396,1,1.31,7.753,32.81,0.6459,2.0764,Act-1
-0.9299,0,1.1773,8.36,50.9079,0.7098,2.0409,Act-1
-0.2834,1,1.2235,8.1979,93.5913,0.687,2.0572,Act-1
0.7316,1,1.2113,8.2451,93.5913,0.72,2.0458,Act-1
-0.0828,0,1.1528,8.3524,50.9079,0.6503,2.0531,Act-1
1.3646,0,1.1563,8.1642,50.9079,0.663,2.0513,Act-1
-1.0195,0,1.1669,8.3944,50.9079,0.689,2.0504,Act-1
-1.3173,0,1.1468,8.0365,93.5913,0.6638,2.0765,Act-1
-0.5813,0,1.177,8.2238,167.9466,0.6736,2.0536,Act-1
0.4157,1,1.2165,8.1563,93.5913,0.7436,2.0456,Act-1
2.0747,1,1.254,8.0549,50.9079,0.6889,2.0513,Act1
-1.0195,0,1.1669,8.3944,50.9079,0.689,2.0504,Act-1
-0.5111,0,1.1643,8.4253,93.5913,0.6639,2.051,Act-1
4.7405,0,1.2327,7.6957,85.3667,0.6206,2.0828,Act1
1.2159,0,1.2524,8.1786,75.5805,0.6432,2.0631,Act-1
3.9506,1,1.4346,8.4312,0.0,0.7425,2.0759,Act-1
-1.3835,1,1.2323,8.4514,60.6941,0.673,2.0936,Act-1
-0.3504,0,1.1951,8.4144,136.2746,0.7184,2.0486,Act-1
-1.4137,0,1.1594,8.3813,93.5913,0.6814,2.0493,Act-1
-0.5665,0,1.1736,8.2861,18.0108,0.7105,2.0487,Act-1
-1.3925,0,1.1183,8.184,83.8051,0.6339,1.991,Act-1
-0.5008,0,1.1442,8.1304,32.8972,0.6281,2.0054,Act-1
1.7984,0,1.101,7.8804,128.05,0.5942,2.0649,Act-1
1.3608,0,1.0987,7.863,170.7334,0.5924,2.0645,Act-1
1.7617,1,1.3298,8.1761,136.2746,0.6402,2.0742,Act1
1.4708,0,1.0668,8.0099,85.3667,0.5984,2.0638,Act-1
2.6124,0,1.0185,7.9254,0.0,0.5964,2.0591,Act1
-0.2104,0,1.1693,8.5807,103.3774,0.6543,2.0874,Act-1
-0.9178,1,1.2065,8.1239,469.5168,0.6042,2.1681,Act-1
3.5334,0,1.3367,7.9153,164.0715,0.6269,2.0576,Act-1
3.89,1,1.4196,7.9299,231.4275,0.6246,2.1364,Act-1
-3.4616,0,1.0089,8.1071,216.9554,0.5742,2.0722,Act-1
0.369,1,1.2067,8.0934,341.4667,0.6063,2.1681,Act-1
2.135,0,1.0268,7.7872,213.4167,0.6024,2.1565,Act1
3.2469,0,1.2534,7.8889,42.6833,0.6287,2.0018,Act1
4.7101,0,1.1856,7.6939,128.1724,0.6153,2.1027,Act1
4.6159,0,1.2272,7.8936,128.05,0.6084,2.0709,Act-1
4.1811,0,1.2228,7.9658,170.7334,0.6064,2.073,Act1
4.4021,0,1.1868,7.6823,128.05,0.6126,2.0963,Act1
3.2147,1,1.1551,8.0069,103.3774,0.6298,2.1653,Act-1
2.7679,1,1.4226,8.0042,231.4275,0.6242,2.1363,Act-1
4.3251,1,1.5547,7.9751,188.7441,0.6416,2.1658,Act-1
2.9485,0,1.0,7.5,0.0,0.5994,2.1054,Act1
4.4728,1,1.5623,7.9327,49.6827,0.7694,2.119,Act1
0.2388,0,1.17,8.7333,0.0,0.6035,1.8331,Act-1
-0.3665,0,1.048,8.5278,32.8972,0.624,1.8393,Act-1
2.7231,0,1.0608,7.7833,0.0,0.6358,2.1034,Act1
3.5436,1,1.2826,7.7196,0.0,0.7165,2.0365,Act1
2.6945,1,1.6291,8.1042,16.405,0.716,2.1222,Act1
2.1333,0,1.1515,7.8561,0.0,0.6381,2.0224,Act-1
3.6511,1,1.3635,7.7355,16.7855,0.6401,2.1335,Act1
3.4995,1,1.359,7.7829,59.4689,0.6463,2.1335,Act1
3.2652,1,1.3083,7.7462,16.7855,0.6377,2.1341,Act-1
3.4472,1,1.3137,7.7302,16.7855,0.6419,2.1341,Act-1
3.0586,1,1.4025,7.9928,16.7855,0.6876,2.0742,Act1
2.1772,0,1.1868,7.6765,18.0108,0.6324,2.0665,Act1
4.5003,1,1.3711,7.8848,31.672,0.6984,2.0233,Act-1
3.8055,1,1.3723,7.8838,31.672,0.6746,2.0312,Act1
2.2134,0,1.1914,7.8739,85.3667,0.6226,2.0063,Act1
2.2641,0,1.3159,8.3571,18.0108,0.6561,2.1146,Act-1
5.9653,1,1.3463,7.8685,18.0108,0.6536,2.1172,Act-1
2.1568,1,1.3923,7.9691,18.0108,0.6488,2.0839,Act-1
2.1783,0,1.3334,8.3067,18.0108,0.6472,2.1237,Act1
1.8435,1,1.3446,7.9414,21.1351,0.649,2.1253,Act-1
1.9343,0,1.3265,8.369,18.0108,0.6468,2.1239,Act1
3.1502,0,1.3191,8.1786,18.0108,0.6368,2.124,Act1
6.3905,1,1.441,7.7974,18.0108,0.669,2.1169,Act1
4.7954,1,1.34,7.8519,18.0108,0.659,2.1169,Act-1
3.0694,1,1.3913,8.2963,36.0215,0.7621,2.033,Act1
2.3614,1,1.4578,7.8994,50.9079,0.6832,2.0584,Act1
2.7577,1,1.4593,7.8951,18.0108,0.6842,2.0553,Act1
7.2122,1,1.4307,7.6301,31.672,0.7018,2.0496,Act1
3.5783,1,1.4653,7.9375,18.0108,0.7261,2.0132,Act1
-2.1866,0,1.1609,8.4194,256.1001,0.6027,2.0323,Act-1
2.595,1,1.39,7.9444,52.6845,0.6933,2.0708,Act1
1.5245,0,1.2868,8.3636,42.6833,0.6531,1.9886,Act1
0.6251,0,1.2932,8.1833,0.0,0.6588,1.9723,Act-1
2.1388,1,1.3579,7.8431,0.0,0.6609,2.0361,Act-1
-0.8574,0,1.0331,7.8788,0.0,0.5651,2.0504,Act-1
1.7815,0,1.2054,7.8889,60.6941,0.6078,2.0197,Act-1
2.4899,0,1.2239,7.9714,75.5805,0.6538,2.0171,Act-1
1.4647,1,1.4486,8.2068,18.0108,0.6879,2.0798,Act1
2.3785,1,1.4481,8.1736,18.0108,0.6812,2.0786,Act1
1.8946,1,1.4481,8.0532,18.0108,0.7041,2.0758,Act1
2.4327,1,1.4493,8.1022,18.0108,0.7273,2.0657,Act1
0.554,1,1.4486,8.2438,18.0108,0.6863,2.0713,Act-1
0.9789,1,1.4481,8.0949,18.0108,0.7027,2.0664,Act1
2.5695,1,1.5164,8.0376,65.7944,0.6692,2.0521,Act1
1.2927,1,1.4555,8.3772,17.8882,0.6595,2.1987,Act-1
6.4736,1,1.4648,7.859,69.5926,0.6548,2.0685,Act-1
5.9809,1,1.2558,7.8218,72.043,0.6327,2.0722,Act-1
4.3805,1,1.4447,7.7963,69.5926,0.6419,2.068,Act1
6.0546,1,1.4701,7.7385,69.5926,0.6562,2.106,Act-1
3.3983,1,1.4561,7.8016,34.7963,0.7171,1.9994,Act1
2.417,1,1.4489,7.9874,34.7963,0.7096,2.0223,Act1
2.6541,1,1.4489,8.0076,34.7963,0.6911,2.0564,Act-1
0.9203,0,1.2399,8.2917,18.0108,0.6457,2.0267,Act-1
3.3511,1,1.3147,7.878,42.6833,0.6689,2.0714,Act1
5.5759,1,1.4012,7.5762,31.672,0.6836,2.0508,Act1
5.812,1,1.3965,7.5602,31.672,0.6792,2.0475,Act1
5.0673,1,1.518,7.7564,69.5926,0.6571,2.1779,Act-1
5.8086,0,1.0,7.1399,0.0,0.6292,2.137,Act-1
1.6445,0,1.351,8.0551,103.3774,0.6306,2.0798,Act-1
2.5649,0,1.3323,7.7564,32.8972,0.6703,2.0245,Act1
2.6251,1,1.4143,8.3383,128.05,0.764,2.0186,Act-1
2.5897,1,1.4425,7.9333,60.6941,0.6951,2.0126,Act1
4.8744,1,1.406,7.7157,18.0108,0.6936,2.035,Act1
5.6576,1,1.6374,7.904,18.0108,0.7146,2.1405,Act1
2.788,1,1.4792,8.2678,31.2914,0.7208,2.0626,Act1
2.9202,1,1.5413,7.9423,59.3464,0.6936,2.0635,Act1
2.344,1,1.5474,7.8621,50.9079,0.6801,2.108,Act1
2.2423,1,1.3052,7.7569,32.8972,0.664,2.0213,Act1
2.288,1,1.3052,7.7569,32.8972,0.664,2.0244,Act1
2.882,1,1.5374,7.6603,18.0108,0.6862,2.0952,Act1
4.1433,1,1.4424,7.5811,31.672,0.6677,2.1709,Act1
1.8781,1,1.3076,7.873,50.9079,0.6832,2.0375,Act1
1.239,0,1.2516,7.9365,50.9079,0.6673,2.0295,Act1
3.2768,1,1.4123,8.0171,36.0215,0.7077,2.0336,Act1
3.4129,1,1.379,7.7123,50.9079,0.7134,2.1346,Act1
3.3979,1,1.4022,7.6131,78.7048,0.6643,2.0457,Act1
2.4877,1,1.4052,8.0288,77.0991,0.7084,2.0515,Act1
1.7191,1,1.4032,7.8551,51.4593,0.6655,2.008,Act1
2.8729,1,1.4239,8.0655,34.4157,0.731,2.0613,Act-1
4.0947,1,1.5621,7.8205,18.0108,0.7069,2.1386,Act1
2.4791,1,1.3436,7.9924,35.899,0.6664,2.0719,Act1
2.2574,1,1.4082,7.9328,18.0108,0.6769,2.0747,Act-1
5.0787,1,1.2803,7.3431,18.0108,0.6219,2.1444,Act1
3.9725,1,1.3096,7.4,18.0108,0.6209,2.1289,Act-1
2.7044,0,1.2234,7.441,32.8972,0.6287,2.0524,Act1
2.6913,1,1.3094,8.0255,42.6833,0.666,2.112,Act1
2.5608,1,1.2976,7.9551,85.3667,0.6596,2.1074,Act1
4.6238,1,1.5971,7.8833,16.7855,0.7074,2.0312,Act1
2.5897,1,1.4437,7.9333,60.6941,0.6951,2.0129,Act1
4.4561,1,1.5631,7.6709,18.0108,0.7294,2.1379,Act1
4.0947,1,1.5631,7.8205,18.0108,0.7069,2.1386,Act1
3.0656,1,1.5627,7.8917,34.4157,0.7014,2.1395,Act1
2.3864,1,1.3706,7.6985,0.0,0.6522,2.1011,Act1
2.7738,1,1.3038,7.6111,42.6833,0.6669,2.1373,Act1
4.2466,1,1.568,8.0185,18.0108,0.7054,2.1389,Act1
4.5099,1,1.5602,8.023,18.0108,0.6919,2.1391,Act1
2.8422,1,1.4922,8.0333,42.6833,0.6978,2.1279,Act-1
3.0384,1,1.4851,7.8889,0.0,0.688,2.1279,Act1
15.0778,0,1.6792,7.4709,0.0,0.6214,2.0244,Act1
2.9318,0,1.1385,7.9167,42.6833,0.6054,2.0265,Act-1
2.4877,1,1.4087,8.0288,77.0991,0.7084,2.0515,Act1
2.4877,1,1.4109,8.0288,77.0991,0.7084,2.0517,Act1
3.4126,1,1.4119,7.6481,34.6738,0.6558,2.053,Act1
3.2566,1,1.5076,7.6765,0.0,0.6781,2.1481,Act1
3.3832,1,1.4752,7.6839,0.0,0.6853,2.0375,Act1
3.6542,1,1.4081,7.523,36.0215,0.6601,2.0466,Act1
2.2382,0,1.2302,7.9282,0.0,0.6637,2.0138,Act1
3.9736,1,1.47,7.5139,18.0108,0.6767,2.1278,Act1
3.4717,1,1.3767,7.6528,0.0,0.6469,2.1059,Act1
2.481,1,1.2872,8.0221,18.0108,0.6555,2.0342,Act1
4.234,1,1.4334,7.6975,59.4689,0.7136,2.0065,Act1
4.1092,1,1.4891,8.237,18.0108,0.6505,2.0399,Act1
3.784,1,1.3968,7.7452,34.7963,0.6743,2.0421,Act1
3.2731,1,1.4,7.6905,34.7963,0.6578,2.0424,Act1
2.1115,1,1.301,7.7821,32.8972,0.655,2.025,Act1
1.3541,1,1.3538,7.8651,65.7944,0.6337,2.0494,Act1
2.3341,1,1.431,8.0,60.6941,0.6629,2.0121,Act1
4.9603,1,1.5546,8.023,18.0108,0.6919,2.1389,Act1
3.1433,1,1.5472,7.987,34.4157,0.7293,2.0528,Act1
2.1509,1,1.3114,7.9167,128.05,0.6373,2.0203,Act-1
2.4638,1,1.4484,7.628,36.0215,0.69,2.0849,Act-1
3.666,1,1.2841,8.251,18.0108,0.6865,2.0502,Act1
3.8056,1,1.2881,7.6956,18.0108,0.7193,2.0475,Act1
4.4576,1,1.2794,8.6344,18.0108,0.6605,2.0742,Act1
3.6189,1,1.2867,8.1759,18.0108,0.6694,2.0655,Act1
3.6189,1,1.2984,8.1759,18.0108,0.6694,2.0676,Act-1
1.9852,0,1.2373,8.0637,0.0,0.6692,2.011,Act-1
1.1411,1,1.4011,7.8611,34.7963,0.6887,1.9746,Act1
3.9557,1,1.2373,7.6398,18.0108,0.6476,2.0697,Act1
2.908,1,1.2995,7.8167,18.0108,0.6566,2.0554,Act1
3.1779,1,1.4805,7.619,16.663,0.6824,2.0277,Act1
3.2107,1,1.4409,7.9533,42.6833,0.6755,2.023,Act-1
1.7729,1,1.342,7.9286,68.9187,0.6653,2.0856,Act1
2.3775,1,1.3087,7.7273,32.8972,0.6748,2.0239,Act1
4.7914,1,1.4771,7.8981,60.6941,0.7156,2.0869,Act1
2.9948,1,1.4712,7.6232,0.0,0.7271,2.0281,Act1
3.4864,1,1.3768,7.7133,18.0108,0.6853,2.0961,Act1
4.1374,1,1.2722,8.3194,18.0108,0.6728,2.0212,Act-1
2.1314,0,1.3245,7.7632,49.6827,0.6536,2.0905,Act1
5.4739,1,1.3976,7.6036,31.672,0.6759,2.0522,Act1
5.6978,1,1.4027,7.6111,74.3553,0.6792,2.0523,Act1
5.0942,1,1.4141,7.6471,74.3553,0.6885,2.0521,Act1
5.4404,1,1.3769,7.5405,31.672,0.6829,2.0532,Act1
2.8495,1,1.2847,7.8131,36.0215,0.6467,2.0851,Act1
3.8424,1,1.3294,7.5833,0.0,0.6926,2.0565,Act1
3.2394,1,1.2516,7.5133,0.0,0.6723,2.0541,Act1
2.2021,1,1.4782,7.7955,18.0108,0.689,2.114,Act1
1.9576,0,1.2613,7.8333,18.0108,0.6496,2.0634,Act1
2.908,1,1.3016,7.8167,18.0108,0.6566,2.0555,Act1
3.2386,1,1.3051,7.9828,18.0108,0.6635,2.0548,Act1
2.2444,0,1.206,7.78,18.0108,0.6434,2.028,Act1
3.2988,1,1.2945,7.95,18.0108,0.6592,2.0513,Act1
3.2988,1,1.2945,7.95,18.0108,0.6592,2.0513,Act1
2.2939,1,1.2942,7.8046,18.0108,0.6586,2.0474,Act1
3.073,1,1.2942,7.8046,36.0215,0.6586,2.0454,Act1
3.8889,0,1.187,7.5123,18.0108,0.6286,2.0739,Act1
2.1994,0,1.206,7.78,18.0108,0.6434,2.0281,Act1
3.2538,1,1.2945,7.95,18.0108,0.6592,2.051,Act1
3.368,1,1.4253,7.62,0.0,0.6691,2.0819,Act1
5.3485,1,1.4268,8.2328,18.0108,0.7018,2.0301,Act1
3.319,1,1.4536,7.7273,18.0108,0.6743,1.9986,Act1
5.0794,1,1.5154,7.7625,36.0215,0.7207,2.142,Act1
3.7094,1,1.2774,7.7949,18.0108,0.647,2.0662,Act1
1.4994,1,1.2676,7.9684,0.0,0.6667,2.079,Act1
3.1433,1,1.545,7.987,34.4157,0.7293,2.0527,Act1
2.7491,1,1.4751,8.0545,77.0991,0.6933,2.0623,Act1
2.5824,1,1.4405,7.7284,18.0108,0.6697,2.1378,Act1
0.7305,1,1.2972,8.1233,18.0108,0.6868,1.9992,Act1
2.3775,1,1.3114,7.7273,32.8972,0.6748,2.024,Act1
3.002,1,1.4296,7.7153,18.0108,0.677,2.0299,Act1
4.3016,1,1.3713,7.4349,0.0,0.6829,2.1046,Act-1
3.5127,1,1.3507,7.7885,36.0215,0.6789,2.1131,Act1
3.1431,1,1.4357,7.9856,77.0991,0.6774,2.0652,Act1
2.4877,1,1.4177,8.0288,77.0991,0.7084,2.0519,Act-1
2.2868,1,1.411,7.9519,67.3129,0.7048,2.0557,Act1
1.9964,1,1.4013,8.2006,77.0991,0.7179,2.0334,Act1
4.2972,1,1.4284,7.5784,42.6833,0.6785,2.1072,Act1
2.8012,1,1.415,7.88,78.7048,0.699,2.0419,Act1
3.5067,1,1.4128,7.8157,95.1098,0.6674,2.0859,Act-1
2.6449,1,1.4128,7.8359,95.1098,0.666,2.0795,Act1
2.7301,1,1.4381,8.0154,77.0991,0.6864,2.062,Act1
3.3452,1,1.5607,7.9274,77.0991,0.6988,2.1344,Act1
4.2538,1,1.5607,7.8952,77.0991,0.6998,2.1395,Act1
3.014,1,1.411,7.9904,77.0991,0.7095,2.0519,Act1
2.1934,1,1.4128,7.8662,95.1098,0.6645,2.0747,Act1
2.2797,1,1.4381,8.0154,77.0991,0.6864,2.0626,Act-1
2.1214,1,1.4381,8.0525,77.0991,0.6849,2.06,Act1
3.3481,1,1.5268,7.9917,77.0991,0.6945,2.0533,Act1
2.7515,1,1.4108,7.9167,34.4157,0.7005,2.0531,Act1
4.0692,1,1.2867,8.1759,18.0108,0.6694,2.0654,Act1
4.158,1,1.4822,8.5909,36.0215,0.6919,2.0616,Act-1
3.2546,1,1.4555,7.8678,36.0215,0.7389,2.0562,Act1
4.0752,1,1.4124,7.6911,34.7963,0.6962,2.039,Act1
2.0474,1,1.4544,7.9667,18.0108,0.6706,2.0791,Act1
2.3775,1,1.3196,7.7273,32.8972,0.6748,2.024,Act1
5.2421,1,1.6495,7.5469,18.0108,0.7098,2.139,Act-1
3.9638,1,1.331,7.3939,18.0108,0.6487,2.0723,Act1
2.928,1,1.418,7.9033,34.4157,0.7144,2.0519,Act1
3.368,1,1.4353,7.62,0.0,0.6691,2.0823,Act1
3.9013,1,1.4034,7.649,0.0,0.6656,2.1523,Act1
3.9715,1,1.4059,7.5323,18.0108,0.6546,2.131,Act1
3.7967,1,1.2877,7.7656,0.0,0.6611,2.0744,Act1
3.5268,1,1.4123,7.8556,18.0108,0.6678,2.0721,Act1
3.8869,1,1.4173,7.7259,18.0108,0.6855,2.0699,Act1
1.1335,1,1.5251,8.2125,248.213,0.6386,2.0449,Act1
3.1433,1,1.5539,7.987,34.4157,0.7293,2.0533,Act1
4.911,1,1.4024,7.6667,60.6941,0.6563,2.0661,Act1
2.3548,1,1.3859,7.8542,36.0215,0.6688,2.047,Act1
2.9089,1,1.4826,7.8462,18.0108,0.6928,2.0593,Act1
3.2409,1,1.4835,8.04,18.0108,0.7061,2.0593,Act1
3.0871,1,1.4867,7.8264,18.0108,0.7078,2.0593,Act1
2.9564,1,1.4568,7.8333,18.0108,0.7375,2.0589,Act1
2.635,1,1.3864,7.8142,52.6845,0.6918,2.0708,Act1
4.037,1,1.3262,7.6467,0.0,0.6644,2.0894,Act1
3.9605,1,1.5112,7.9617,36.0215,0.682,2.1227,Act1
1.7373,0,1.2241,7.7889,18.0108,0.6355,2.0649,Act1
4.4979,1,1.599,8.1902,77.0991,0.6917,2.1558,Act1
3.0751,1,1.6252,7.5897,16.663,0.7144,2.13,Act-1
1.8049,1,1.4087,7.7778,16.663,0.6858,2.0441,Act1
5.2091,1,1.561,8.0635,18.0108,0.7263,2.1368,Act1
2.8155,0,1.2751,8.1957,85.3667,0.6358,2.0315,Act1
3.6109,1,1.4771,7.9952,34.4157,0.6786,2.153,Act-1
1.5897,1,1.2435,7.6012,102.1522,0.6291,2.1332,Act-1
-0.6656,0,1.2161,7.9943,18.0108,0.6443,2.0761,Act-1
1.6378,0,1.2337,8.0741,60.6941,0.6405,2.0989,Act1
-1.1252,0,1.1835,8.529,213.4167,0.62,2.0911,Act-1
0.0137,0,1.1042,8.033,213.4167,0.5927,2.0562,Act-1
0.8977,1,1.3218,7.7429,50.9079,0.6425,2.0566,Act1
1.5177,0,1.1998,7.5521,0.0,0.6355,2.0699,Act1
2.0811,1,1.4034,7.9688,0.0,0.7026,2.0521,Act-1
9.024,0,1.1626,7.4489,42.6833,0.6265,2.1043,Act-1
1.3223,0,1.2375,7.7667,0.0,0.6221,2.0438,Act1
0.7936,1,1.2195,7.9603,128.05,0.6364,2.1059,Act1
0.4785,1,1.2273,8.1226,159.6304,0.6443,2.1056,Act1
1.9297,1,1.2549,7.9094,128.05,0.6633,2.1057,Act1
2.2987,1,1.3125,7.7738,18.0108,0.6283,2.0355,Act1
4.9611,1,1.4755,7.8923,34.4157,0.6731,2.0648,Act1
2.5524,1,1.2386,7.8062,0.0,0.6155,2.0112,Act1
5.0258,0,1.4962,7.8264,42.6833,0.6452,2.0553,Act1
1.8747,1,1.3625,7.8083,65.7944,0.6385,2.0578,Act-1
1.8425,1,1.3501,7.7549,0.0,0.6367,2.0057,Act1
2.1846,1,1.3166,7.8267,103.3774,0.6386,2.0981,Act-1
1.5748,1,1.3888,8.1905,213.4167,0.6653,2.0945,Act-1
1.517,1,1.3795,8.3986,170.7334,0.6786,2.0634,Act-1
1.3541,1,1.3538,7.8651,65.7944,0.6337,2.0494,Act-1
3.5184,0,1.2288,7.7955,60.6941,0.6177,2.0158,Act1
2.7065,1,1.253,7.9201,50.9079,0.6441,2.0604,Act-1
1.4332,1,1.4056,7.7333,32.8972,0.6629,2.0948,Act-1
3.5304,1,1.602,7.8482,34.4157,0.7047,2.1965,Act1
0.3737,1,1.3769,7.5263,18.0108,0.6269,2.1297,Act-1
2.1756,1,1.3769,7.5789,50.9079,0.6331,2.1293,Act-1
3.8163,1,1.4281,7.7191,18.0108,0.677,2.1339,Act1
2.497,1,1.4622,7.7654,83.8051,0.6449,2.1407,Act-1
1.2334,1,1.3529,8.2149,49.3022,0.68,2.046,Act-1
2.3249,1,1.2902,7.9462,78.7048,0.6367,2.0058,Act1
1.6075,0,1.2506,7.7917,0.0,0.6222,1.9878,Act1
3.3847,1,1.3827,7.4345,16.7855,0.646,2.0679,Act1
0.9255,1,1.3035,7.7321,49.6827,0.6267,2.1781,Act-1
3.0646,1,1.3142,7.725,42.6833,0.6352,2.1106,Act-1
1.8905,0,1.3308,7.8966,18.0108,0.6457,2.0251,Act-1
4.0289,1,1.3542,8.2079,85.3667,0.6706,2.1038,Act-1
1.8454,0,1.1701,7.5144,0.0,0.6539,2.0852,Act1
3.2433,1,1.4554,7.6577,0.0,0.6238,2.1671,Act-1
2.9548,0,1.1817,7.5797,0.0,0.6253,2.1287,Act1
3.3947,0,1.1632,7.6111,32.8972,0.6108,2.1334,Act1
2.1829,1,1.268,7.6954,0.0,0.6463,2.1209,Act-1
1.9284,1,1.2738,7.5298,3.1243,0.645,2.1229,Act-1
2.9548,0,1.1817,7.5797,0.0,0.6253,2.1287,Act1
3.0553,1,1.2792,7.598,0.0,0.6318,2.123,Act1
3.736,1,1.4524,7.6,85.3667,0.658,2.1638,Act1
1.4249,1,1.3228,7.7857,50.9079,0.6222,2.1278,Act-1
1.7111,1,1.3783,7.8155,32.8972,0.6518,2.135,Act-1
2.7288,1,1.4632,7.9704,68.9187,0.6896,2.1279,Act-1
2.6872,1,1.444,8.1319,60.6941,0.6675,2.0269,Act-1
1.8037,0,1.3375,8.2308,42.6833,0.6596,2.0003,Act-1
3.3705,0,1.299,7.7963,0.0,0.631,2.0027,Act1
-1.2715,1,1.2442,8.314,341.4667,0.6203,2.0801,Act-1
3.08,1,1.302,7.7931,0.0,0.6657,2.0071,Act1
2.9211,1,1.3747,8.0196,42.6833,0.6873,2.0392,Act-1
4.2526,1,1.3251,7.8587,0.0,0.6609,2.0569,Act1
1.366,0,1.2255,8.0417,0.0,0.653,2.0028,Act-1
2.4794,1,1.3325,7.8333,36.0215,0.6917,2.0294,Act-1
4.0852,1,1.3304,7.5641,18.0108,0.6448,2.0714,Act1
2.48,1,1.3176,7.75,18.0108,0.634,2.0336,Act-1
6.0542,1,1.2617,7.3405,18.0108,0.6524,2.149,Act-1
0.6524,0,1.1718,7.5042,45.8077,0.6082,2.1027,Act-1
5.413,1,1.4014,7.6461,0.0,0.6999,2.0623,Act1
2.873,0,1.1718,7.5208,42.6833,0.613,2.084,Act-1
1.9371,1,1.3174,7.96,121.3882,0.6368,2.0431,Act1
3.5895,0,1.1939,7.8633,42.6833,0.6392,2.0855,Act1
2.8304,1,1.3646,7.9649,0.0,0.7075,2.0031,Act1
1.909,1,1.3371,8.2348,128.05,0.6682,2.0744,Act-1
3.3917,0,1.2875,7.6071,0.0,0.8383,1.9813,Act1
3.1476,1,1.4592,8.5525,31.2914,0.6871,2.0614,Act1
6.154,1,1.4056,7.5672,42.6833,0.6784,2.1944,Act-1
2.3547,0,1.205,7.6417,18.0108,0.6337,2.0174,Act1
2.1802,1,1.401,8.1349,85.3667,0.6921,2.0663,Act-1
2.2394,1,1.342,8.0374,34.1707,0.7017,2.1039,Act-1
3.2107,1,1.4409,7.9533,42.6833,0.6755,2.023,Act1
0.8594,1,1.302,7.7816,3.1243,0.6606,2.038,Act-1
1.8888,1,1.3033,7.9196,121.3882,0.6374,2.0666,Act-1
3.0362,1,1.3878,7.6468,0.0,0.6267,2.1666,Act-1
3.269,1,1.4738,7.6533,0.0,0.6617,2.1376,Act1
2.7268,1,1.2976,7.6867,60.6941,0.6293,2.0248,Act1
3.6758,1,1.3047,8.0463,36.0215,0.6719,2.047,Act-1
3.4339,1,1.3047,8.0311,52.4265,0.6671,2.0591,Act-1
3.468,1,1.3764,7.9603,125.2632,0.6587,2.0706,Act1
0.5526,1,1.3113,7.4841,3.1243,0.6326,2.0639,Act-1
2.7732,1,1.3113,7.5,0.0,0.6383,2.0473,Act1
4.657,1,1.2891,7.8137,0.0,0.6511,2.0968,Act-1
1.0488,0,1.2003,7.5614,18.0108,0.6095,2.0526,Act-1
2.3595,1,1.379,7.8317,78.7048,0.6646,2.0422,Act-1
1.8728,1,1.3515,7.8571,78.7048,0.6473,2.0577,Act1
2.4937,1,1.3759,7.8873,32.8972,0.6688,2.0811,Act1
3.4488,1,1.4505,7.9774,67.6935,0.6871,2.0542,Act1
1.287,1,1.3501,8.2149,49.3022,0.68,2.0459,Act1
2.2206,1,1.4378,7.7731,16.7855,0.6772,2.0223,Act-1
1.4306,1,1.3582,7.7843,34.7963,0.6439,2.0237,Act-1
3.4553,1,1.3666,7.7014,0.0,0.6663,2.0864,Act-1
3.3975,1,1.3029,8.009,34.4157,0.6545,2.1023,Act1
3.1476,1,1.4329,8.1044,0.0,0.7098,2.0515,Act-1
3.8184,1,1.4329,8.0644,42.6833,0.7018,2.0515,Act1
3.5226,1,1.416,8.182,42.6833,0.6903,2.0516,Act-1
1.3436,0,1.165,7.2292,3.1243,0.63,2.2068,Act-1
0.5479,0,1.2485,8.1278,16.2825,0.6604,2.0883,Act-1
1.8354,1,1.3424,7.3986,3.1243,0.664,2.0794,Act1
2.4676,1,1.2934,7.7611,0.0,0.6521,2.0875,Act-1
0.6182,0,1.2307,8.337,0.0,0.6458,2.1096,Act-1
0.6416,0,1.2996,8.1912,16.2825,0.665,2.0825,Act-1
3.8333,1,1.3578,7.8237,34.4157,0.6616,2.128,Act-1
2.2018,1,1.4,8.0392,0.0,0.6771,2.1358,Act1
2.2018,1,1.4,8.0392,0.0,0.6771,2.1358,Act-1
3.0703,1,1.4,7.7255,0.0,0.6667,2.1347,Act-1
2.6473,1,1.4473,7.4792,0.0,0.6484,2.1714,Act-1
3.0001,1,1.4405,7.56,0.0,0.6813,2.2062,Act1
2.4351,1,1.3962,7.7407,18.0108,0.6573,2.1381,Act-1
1.8318,1,1.4378,7.7523,33.5711,0.6705,2.0777,Act-1
1.4074,1,1.4198,8.0513,0.0,0.7075,1.9951,Act-1
2.7489,1,1.3,7.8188,60.6941,0.6466,2.0326,Act-1
0.3306,0,1.1793,7.5307,45.8077,0.6096,2.1075,Act-1
4.5624,1,1.3141,7.5725,0.0,0.6842,2.0793,Act1
1.2336,1,1.2813,7.5119,21.1351,0.6415,2.1171,Act-1
5.3718,1,1.4208,8.2256,42.6833,0.6558,2.122,Act1
0.5139,0,1.1807,8.2147,18.0108,0.6635,2.034,Act-1
0.0626,1,1.268,8.1576,213.4167,0.634,2.1417,Act-1
0.4557,1,1.293,8.2346,203.6306,0.6449,2.1413,Act-1
0.693,0,1.2403,8.3611,0.0,0.6557,2.1084,Act-1
0.711,0,1.3149,8.2056,16.2825,0.6827,2.0805,Act-1
1.4074,1,1.4234,8.0513,0.0,0.7075,1.9957,Act-1
1.4074,1,1.4234,8.0513,0.0,0.7075,1.9954,Act-1
-0.389,1,1.3137,7.8241,34.4157,0.6492,2.1207,Act-1
3.3414,1,1.4203,7.5575,42.6833,0.6539,2.1256,Act-1
2.3998,1,1.3067,7.6667,50.9079,0.6405,2.075,Act-1
2.492,1,1.3137,7.7438,16.405,0.6512,2.0763,Act-1
1.3806,0,1.2049,7.744,18.0108,0.6233,2.0692,Act-1
1.3978,0,1.2846,8.037,42.6833,0.6444,1.9738,Act1
3.7707,1,1.4323,7.9402,59.0883,0.6697,2.0777,Act1
0.5771,0,1.2359,8.119,85.3667,0.6124,1.9884,Act-1
0.4856,0,1.2289,8.2549,75.5805,0.6128,1.9891,Act-1
1.1751,1,1.5295,7.6333,77.4796,0.6552,2.0501,Act-1
3.198,1,1.5236,7.7581,102.2745,0.6565,2.045,Act-1
3.1554,1,1.5295,7.65,77.4796,0.6601,2.0449,Act1
1.9961,1,1.4304,8.2585,16.7855,0.6753,2.0138,Act1
2.8538,1,1.4199,7.6481,16.7855,0.6899,2.01,Act-1
0.6417,1,1.3501,8.2149,49.3022,0.68,2.0448,Act-1
1.2362,0,1.258,7.809,36.0215,0.6567,1.9725,Act-1
-1.1993,1,1.3052,8.2381,160.9472,0.6141,2.0125,Act-1
6.6435,1,1.5213,7.5495,42.6833,0.7014,2.164,Act-1
0.7886,1,1.3613,8.2149,49.3022,0.68,2.0461,Act-1
1.0751,1,1.349,8.2024,49.3022,0.6656,2.0474,Act-1
-0.4001,0,1.1652,8.256,93.5913,0.6804,2.0506,Act-1
0.8708,0,1.1487,8.1757,50.9079,0.653,2.0527,Act-1
-0.4001,0,1.1652,8.256,93.5913,0.6804,2.0506,Act-1
3.2385,1,1.3711,8.096,85.3667,0.633,2.1017,Act-1
1.6744,0,1.1974,7.6842,60.6941,0.6024,2.0164,Act-1
1.6426,0,1.1738,7.7178,50.9079,0.6348,2.0534,Act1
2.8762,0,1.1587,7.8355,126.4885,0.5954,2.0581,Act-1
2.6062,1,1.426,7.6207,18.0108,0.673,2.0908,Act1
5.5135,1,1.4082,7.5714,31.672,0.6836,2.0522,Act1
5.619,1,1.4126,7.5404,31.672,0.6924,2.0508,Act1
5.856,1,1.4075,7.5245,31.672,0.6873,2.0475,Act1
4.0294,1,1.395,7.5741,31.672,0.6802,2.028,Act1
2.3061,1,1.3526,7.6207,34.7963,0.6521,2.0409,Act1
1.8543,1,1.3135,7.9195,36.0215,0.6881,2.0587,Act1
2.5452,1,1.4636,7.9524,18.0108,0.667,2.0323,Act1
2.1549,1,1.3309,7.7143,60.6941,0.653,2.0471,Act1
4.8945,1,1.5778,7.9341,54.0323,0.71,2.022,Act1
1.4371,1,1.3419,8.1151,0.0,0.6763,2.0214,Act-1
-0.5813,0,1.177,8.2238,167.9466,0.6736,2.0536,Act-1
1.1343,0,1.0298,8.8102,42.6833,0.7321,1.7371,Act-1
1.4668,0,1.1046,8.6086,0.0,0.7235,1.6901,Act-1
3.1481,0,1.233,7.7378,0.0,0.7236,1.9676,Act1
1.8221,0,1.2371,8.1038,0.0,0.7538,1.9586,Act1
2.3194,1,1.4928,7.9391,18.0108,0.7036,2.1096,Act1
1.9841,1,1.3279,8.0174,32.8972,0.6923,2.035,Act1
1.9841,1,1.3332,8.0174,32.8972,0.6923,2.0354,Act1
1.9841,1,1.3487,8.0174,32.8972,0.6923,2.037,Act1
1.8497,1,1.3572,8.1272,18.0108,0.7251,2.0202,Act1
4.486,1,1.6097,8.0053,0.0,0.7494,2.0494,Act1
1.5568,0,1.2314,8.6971,60.6941,0.6919,2.0517,Act-1
0.6174,0,1.2314,8.6019,103.3774,0.687,2.0515,Act-1
1.6229,1,1.4784,8.0038,16.405,0.7037,2.0643,Act1
2.6874,1,1.4017,8.4325,16.405,0.689,2.0979,Act-1
1.4485,0,1.1643,7.7212,19.5293,0.6549,2.1226,Act-1
3.3125,1,1.3205,8.3548,16.405,0.6624,2.0816,Act-1
-2.0998,0,1.0799,9.1563,85.3667,0.6087,1.9351,Act-1
-0.3566,0,1.0936,8.8452,0.0,0.6197,1.9323,Act-1
-0.8225,0,1.0744,8.5784,18.0108,0.6078,1.9478,Act-1
5.667,1,1.616,7.8285,0.0,0.7645,2.0726,Act1
5.7667,1,1.6148,7.7816,0.0,0.7752,2.0718,Act1
5.0614,1,1.2627,7.4063,18.0108,0.6531,2.0918,Act1
5.1679,1,1.5304,8.2057,67.5709,0.6984,2.0157,Act1
0.0359,1,1.2083,8.2292,190.3069,0.6437,2.0298,Act-1
-2.0505,1,1.2714,8.3344,333.1179,0.6505,2.0374,Act-1
1.6799,1,1.2634,8.8024,251.9048,0.6958,2.0049,Act1
2.5406,0,1.0,10.2778,0.0,0.7884,1.6408,Act-1
5.9667,0,1.0,11.2212,0.0,0.5824,1.9674,Act-1
4.5235,0,1.0,11.475,0.0,0.5227,1.9462,Act-1
3.9636,0,1.0,11.5147,0.0,0.5187,1.9241,Act1
2.2178,0,1.0,10.6528,0.0,0.5871,1.7585,Act1
2.2621,0,1.0,10.6528,0.0,0.5871,1.7665,Act-1
2.5702,1,1.4284,8.2201,55.8816,0.6683,2.0135,Act-1
2.4536,0,1.2295,8.4107,60.6941,0.6418,2.1022,Act-1
1.3706,0,1.232,8.1026,42.6833,0.644,2.1284,Act-1
1.1609,0,1.232,8.1282,42.6833,0.6415,2.1239,Act-1
3.375,1,1.3957,8.7593,85.3667,0.6941,2.0574,Act-1
1.9572,0,1.2205,8.0064,42.6833,0.6559,2.0782,Act-1
1.4832,0,1.2398,8.1042,60.6941,0.6526,2.0935,Act-1
1.289,0,1.2508,8.2246,60.6941,0.6413,2.0936,Act-1
1.7983,0,1.2447,8.3467,60.6941,0.6388,2.1053,Act-1
1.6579,1,1.3056,8.2841,42.6833,0.6591,2.0489,Act-1
0.9699,0,1.1873,8.0903,18.0108,0.6278,2.0511,Act-1
1.3086,0,1.2508,8.1812,60.6941,0.6441,2.1017,Act-1
2.9108,1,1.3286,8.2241,42.6833,0.6689,2.1129,Act-1
2.5452,1,1.3336,8.2679,60.6941,0.6744,2.1113,Act-1
2.1999,0,1.2653,8.3421,42.6833,0.6734,2.1274,Act-1
3.3122,1,1.3497,7.7278,3.1243,0.6696,2.1251,Act-1
5.5328,1,1.3497,7.7389,0.0,0.6747,2.0926,Act1
3.6115,1,1.3229,7.816,0.0,0.6671,2.0445,Act-1
3.2818,1,1.2853,7.7292,18.0108,0.6573,2.0796,Act-1
1.3015,1,1.2853,7.7083,18.0108,0.6511,2.1135,Act-1
5.2234,1,1.483,7.5735,18.0108,0.6627,2.0728,Act-1
2.4218,0,1.2681,7.9583,36.0215,0.711,1.9696,Act-1
4.0505,1,1.3643,7.8122,0.0,0.8358,1.9474,Act1
3.4388,1,1.3699,7.7389,0.0,0.8072,1.9638,Act-1
1.0283,0,1.028,7.7464,75.5805,0.6313,2.1829,Act-1
0.9583,0,1.0298,7.7348,60.6941,0.6234,2.1785,Act-1
-1.5656,0,1.2414,9.5769,0.0,1.0752,1.5156,Act-1
3.8985,1,1.3647,8.2308,18.0108,0.7872,2.0471,Act1
2.6723,1,1.4269,7.6232,16.7855,0.6732,2.003,Act1
-2.74,0,1.234,9.2464,0.0,0.7179,1.8892,Act-1
0.9385,0,1.2297,8.1494,60.6941,0.6639,2.0773,Act1
1.3739,1,1.5099,7.886,16.663,0.7332,1.983,Act-1
0.4284,1,1.3205,8.4247,34.4157,0.6606,2.1231,Act-1
0.0839,0,1.2833,9.0688,121.3882,0.7083,2.0093,Act-1
2.1411,1,1.3733,7.9561,0.0,0.742,2.0085,Act-1
3.2907,1,1.4887,7.697,49.6827,0.6719,2.0754,Act1
1.5923,1,1.4443,8.619,0.0,0.7283,2.0886,Act-1
0.9161,1,1.434,8.1389,32.8972,0.7196,2.003,Act-1
1.7071,1,1.4362,8.1065,0.0,0.817,1.964,Act-1
4.1692,1,1.3355,9.3504,32.8972,0.7504,2.0036,Act1
-0.0445,0,1.2194,8.25,93.5913,0.6578,2.0099,Act-1
-0.4498,0,1.1558,9.4286,0.0,0.7715,1.6398,Act-1
0.7253,0,1.2629,7.5167,18.0108,0.6281,1.9964,Act-1
4.5671,1,1.401,7.3254,0.0,0.6678,2.0364,Act-1
2.9415,1,1.3309,7.4259,0.0,0.6543,2.0619,Act-1
1.2046,1,1.4379,7.7917,50.6629,0.6773,2.118,Act-1
0.5042,0,1.2992,8.0972,50.7854,0.6839,1.9597,Act-1
0.7094,0,1.1993,8.2755,93.5913,0.6756,2.1071,Act-1
0.6459,0,1.1993,8.2894,93.5913,0.7081,2.0521,Act-1
0.1289,1,1.2418,8.2097,152.9376,0.6974,2.0586,Act-1
-1.9092,0,1.0821,9.5185,118.2639,0.5692,1.8858,Act-1
3.092,1,1.3518,8.0664,118.2639,0.8895,1.9918,Act1
1.5101,0,1.2153,8.0819,75.5805,0.6619,2.0428,Act-1
-0.5183,0,1.2483,8.6786,160.9472,0.6252,2.0142,Act-1
-2.5925,0,1.0613,8.8778,154.2854,0.6141,1.9553,Act-1
-5.6434,0,1.0516,8.8583,223.2041,0.6274,1.9568,Act-1
-1.2613,0,1.0331,8.5758,118.2639,0.6077,1.8435,Act-1
-2.4132,0,1.0487,8.8333,151.1611,0.6512,1.8293,Act-1
1.5149,0,1.2452,7.4833,32.8972,0.6577,1.9712,Act-1
2.687,0,1.2313,8.1152,75.5805,0.6623,2.0698,Act1
-1.6009,0,1.0533,8.5714,53.5223,0.5726,1.7822,Act-1
0.2074,1,1.3752,8.1,92.3661,0.6566,2.0194,Act-1
-1.7301,0,1.2135,8.4697,92.3661,0.6105,1.8862,Act-1
0.2094,0,1.2607,8.2639,75.5805,0.6401,2.0135,Act-1
-1.5356,0,1.0726,9.2667,118.2639,0.5721,1.9146,Act-1
-2.2746,0,1.0558,9.4286,118.2639,0.5467,1.8538,Act-1
2.5321,1,1.3187,8.4556,75.5805,0.6784,2.093,Act-1
-2.847,0,1.0,8.8056,203.6306,0.5539,2.0022,Act-1
2.341,0,1.2215,8.2927,75.5805,0.6732,2.0622,Act1
0.0379,0,1.2624,9.0451,62.5829,0.7784,1.9691,Act-1
3.36,1,1.444,8.7756,31.2914,0.6998,2.0463,Act-1
2.1711,1,1.4741,8.0556,171.8217,0.6769,2.0444,Act1
2.8486,1,1.3295,7.84,129.1383,0.6438,2.0131,Act1
2.0865,1,1.3473,7.913,129.1383,0.6517,2.0133,Act1
3.3262,1,1.3448,7.9133,129.1383,0.7146,1.9958,Act-1
2.2815,0,1.3412,8.1706,82.4574,0.7283,1.9595,Act1
-0.5329,0,1.2628,8.6074,148.3743,0.6571,1.9824,Act-1
1.9469,0,1.2631,8.337,82.5799,0.718,1.9776,Act-1
1.6806,0,1.2676,7.8433,82.5799,0.7601,1.98,Act-1
0.5573,0,1.0182,7.7167,82.5799,0.5887,2.0026,Act1
-3.4798,1,1.1375,8.125,498.7407,0.6205,2.0981,Act-1
-3.508,1,1.1219,8.2635,350.0301,0.6367,2.0459,Act-1
-1.8773,1,1.2064,8.2076,264.9997,0.6407,2.0263,Act-1
-0.9142,0,1.0326,8.0494,212.1927,0.5754,1.9743,Act-1
1.0455,0,1.0208,7.5476,82.5799,0.5799,2.0247,Act-1
-0.3196,0,1.2755,8.6012,113.8713,0.661,2.0323,Act-1
4.1401,1,1.4947,7.8889,67.4484,0.73,1.9861,Act-1
3.252,1,1.3647,7.6875,67.6935,0.6836,2.0178,Act-1
4.8518,1,1.2376,7.8987,234.7524,0.6586,1.9915,Act1
0.3056,0,1.1172,8.2778,67.6935,0.6606,1.9608,Act-1
-0.667,0,1.1276,8.1979,117.0387,0.6252,1.9131,Act-1
-0.7376,0,1.0829,8.3333,49.6827,0.6333,1.7253,Act-1
2.885,1,1.457,7.7963,32.8972,0.7091,2.0176,Act-1
2.5648,1,1.3784,7.4556,32.8972,0.6752,2.1585,Act-1
-0.5189,1,1.3473,7.8261,129.1383,0.6397,2.0322,Act-1
0.7795,0,1.2631,8.2704,82.5799,0.7045,1.985,Act-1
-0.2982,0,1.2197,8.5792,68.9187,0.6606,2.0661,Act-1
-1.6378,0,1.0643,8.9069,32.8972,0.6317,1.9831,Act-1
4.162,1,1.2769,7.5495,32.8972,0.6706,2.0788,Act1
2.4636,0,1.1412,7.8673,32.8972,0.6232,2.0965,Act-1
4.6393,1,1.2855,7.4812,32.8972,0.6518,2.0973,Act1
4.0455,1,1.2873,7.4268,32.8972,0.6397,2.0974,Act1
1.1949,0,1.3282,9.2111,32.8972,0.6525,2.1385,Act-1
-1.2545,1,1.2755,8.4884,50.9079,0.703,2.1029,Act-1
1.6972,0,1.3117,8.8675,32.8972,0.7086,2.0768,Act-1
0.7644,0,1.3039,8.5,75.5805,0.6588,1.9925,Act-1
-0.9792,0,1.3139,8.4259,32.8972,0.6595,1.959,Act-1
-0.3236,0,1.2906,9.1061,75.5805,0.6417,1.962,Act-1
-2.1794,0,1.169,8.6852,203.6306,0.5984,1.877,Act-1
-2.3461,0,1.1686,8.598,160.9472,0.598,1.8604,Act-1
1.914,1,1.377,8.1053,65.7944,0.6815,2.0591,Act-1
1.693,0,1.0253,7.7222,32.8972,0.6698,1.9275,Act1
-0.9244,0,1.0694,8.4333,32.8972,0.5983,1.8545,Act-1
2.3223,1,1.3841,8.0,32.8972,0.7009,2.0256,Act1
0.6101,0,1.2664,8.3462,50.9079,0.6507,2.0066,Act-1
-1.2915,0,1.2727,8.7902,50.9079,0.6932,1.9824,Act-1
-3.2855,0,1.1138,8.9722,68.9187,0.7286,1.818,Act-1
-2.0976,0,1.0926,9.0303,86.9294,0.5969,1.8365,Act-1
-1.4048,0,1.0805,9.7333,90.1756,0.5202,1.731,Act-1
0.7151,0,1.2208,8.3431,65.7944,0.6257,2.0217,Act-1
1.1848,0,1.2223,8.3403,75.5805,0.6518,1.9681,Act-1
0.0109,0,1.2755,8.506,82.1994,0.7176,2.0279,Act-1
-2.1482,0,1.0,8.9688,160.9472,0.5356,1.9201,Act-1
-1.465,0,1.2221,8.6481,239.407,0.6018,2.0084,Act-1
-1.369,0,1.0558,9.0317,75.5805,0.6319,1.8211,Act-1
-1.4654,0,1.0648,9.0909,118.2639,0.6258,1.8306,Act-1
-7.9924,0,1.0,8.3651,505.9527,0.5703,2.06,Act-1
0.7896,0,1.0296,8.1212,75.5805,0.5863,2.0469,Act-1
2.4705,0,1.1936,8.0152,75.5805,0.6266,2.057,Act-1
-5.8885,0,1.0,8.2708,377.9027,0.5696,2.0692,Act-1
-6.5483,0,1.0,8.4242,430.3722,0.5682,2.0671,Act-1
-6.0107,0,1.0,8.3763,387.6888,0.5691,2.0609,Act-1
3.0117,1,1.3909,7.4825,32.8972,0.6937,2.0274,Act-1
0.9465,0,1.1932,7.6296,93.5913,0.6866,2.0913,Act-1
2.9268,0,1.1932,7.6574,93.5913,0.6951,2.0468,Act-1
1.779,1,1.377,8.2632,32.8972,0.6954,2.0575,Act-1
0.8514,0,1.3062,7.8462,50.9079,0.64,2.051,Act-1
2.176,1,1.3784,7.4222,49.6827,0.6654,2.2001,Act-1
2.5648,1,1.3784,7.4556,32.8972,0.6752,2.1585,Act1
2.6717,1,1.5554,7.5889,32.8972,0.7223,2.1912,Act-1
0.5268,0,1.3053,8.9083,95.4801,0.7768,2.0623,Act-1
1.3254,0,1.2085,7.9333,65.7944,0.6097,2.0867,Act-1
1.8207,1,1.4494,7.6818,32.8972,0.6998,2.1202,Act-1
2.5324,1,1.4845,7.8542,65.7944,0.6782,2.0187,Act-1
0.1839,0,1.2592,8.5476,93.5913,0.6425,2.0116,Act-1
0.5598,0,1.2983,8.5,75.5805,0.6588,1.9988,Act-1
0.7321,0,1.2906,8.7424,118.2639,0.6474,1.9996,Act-1
1.173,1,1.3631,8.2598,32.8972,0.7109,2.024,Act-1
1.4794,1,1.3425,8.2939,49.3022,0.7042,2.0454,Act-1
1.6013,1,1.3564,8.2886,49.3022,0.7304,2.0429,Act-1
1.347,1,1.3631,8.1716,49.3022,0.7007,2.0477,Act-1
2.2065,1,1.4598,8.0038,49.3022,0.7052,2.0465,Act1
1.0647,1,1.3311,8.2031,49.3022,0.7402,2.0269,Act-1
-0.0957,0,1.3056,8.6136,64.1886,0.6764,2.026,Act-1
1.1923,0,1.2698,7.8939,50.9079,0.7433,1.9643,Act-1
-0.0393,0,1.2308,8.425,50.9079,0.6736,1.9985,Act-1
0.0103,0,1.2231,8.2018,50.9079,0.6621,2.0006,Act-1
0.2231,0,1.2377,8.4222,118.2639,0.6211,2.0055,Act-1
0.601,0,1.3154,7.881,32.8972,0.6565,1.9635,Act-1
-1.957,0,1.1337,8.5392,160.9472,0.6032,1.9661,Act-1
-0.8475,0,1.1293,8.9213,118.2639,0.604,1.9668,Act-1
-0.3,0,1.1444,8.1667,75.5805,0.6138,1.9657,Act-1
-1.8832,0,1.1546,8.7485,149.8442,0.6248,1.9863,Act-1
-0.9067,0,1.1444,8.3,75.5805,0.6108,1.9637,Act-1
2.6146,1,1.3374,8.5172,75.5805,0.6711,2.0922,Act-1
0.1507,0,1.3154,7.881,32.8972,0.6565,1.9648,Act-1
2.9944,1,1.6381,7.6795,49.5602,0.7425,2.0301,Act-1
2.8558,1,1.4601,7.9389,67.5709,0.722,2.044,Act-1
2.2418,1,1.4651,7.8684,67.5709,0.6943,2.049,Act-1
1.7164,1,1.5555,7.9028,67.5709,0.6951,2.061,Act-1
-0.3431,0,1.2008,9.0,50.9079,0.6285,1.9352,Act-1
1.8357,0,1.3255,8.0056,50.9079,0.7438,2.0218,Act-1
-2.3431,0,1.2551,8.4902,104.9402,0.6464,2.0753,Act-1
1.1714,1,1.3534,8.3548,171.0709,0.6509,2.0361,Act-1
0.3563,1,1.3738,8.4063,172.2961,0.6536,2.0613,Act-1
-0.6939,0,1.2385,8.25,136.2746,0.6121,1.9897,Act-1
-0.09,0,1.1395,8.5,75.5805,0.6543,1.964,Act-1
2.3804,1,1.3752,7.7917,111.602,0.6768,2.0383,Act-1
0.0857,1,1.3131,8.1462,118.2639,0.6547,1.996,Act-1
-1.0743,1,1.307,8.5,160.9472,0.6197,2.0091,Act-1
1.5181,1,1.5074,7.9035,98.6916,0.6854,2.1263,Act-1
2.549,1,1.3967,8.0764,65.7944,0.7507,2.0187,Act1
1.3847,1,1.3466,7.6984,93.5913,0.6425,2.0218,Act-1
-1.4819,0,1.2421,8.3611,136.2746,0.6094,1.9573,Act-1
-0.958,0,1.2523,8.2604,93.5913,0.6176,1.9518,Act-1
2.8474,1,1.356,8.85,32.8972,0.7105,1.9734,Act1
-0.0663,0,1.2874,7.9848,67.6935,0.7298,1.8888,Act-1
-1.8893,0,1.1337,8.598,160.9472,0.598,1.9516,Act-1
-1.0444,0,1.1388,8.4271,118.2639,0.6031,1.9512,Act-1
-0.1821,1,1.4131,7.95,49.6827,0.6686,1.9893,Act-1
-0.7771,1,1.2881,8.279,112.7124,0.6613,2.0076,Act-1
-1.4486,1,1.3118,8.2544,160.9472,0.6216,2.0078,Act-1
2.4081,1,1.4001,8.0764,65.7944,0.7507,2.0224,Act1
-0.8496,0,1.0821,9.037,75.5805,0.5786,1.8988,Act-1
0.3394,0,1.2536,8.2424,118.2639,0.6237,2.0077,Act1
-7.6217,0,1.0048,8.45,491.0662,0.5711,2.073,Act-1
1.1626,0,1.0252,8.0347,75.5805,0.5864,2.0612,Act-1
-4.9466,0,1.0,8.172,335.2193,0.5713,2.0692,Act-1
-0.1576,0,1.2927,8.4792,64.1886,0.6643,2.0362,Act-1
-2.7565,0,1.0532,9.6432,224.1079,0.63,1.8579,Act-1
-7.65,0,1.0739,8.5069,403.7248,0.5938,2.0419,Act-1
-0.5414,0,1.2273,7.7708,49.6827,0.606,1.8451,Act-1
-0.3038,0,1.0298,9.3125,108.4777,0.5568,1.9633,Act-1
-1.6206,0,1.0419,8.6667,108.4777,0.5584,1.9309,Act-1
-2.5091,0,1.0487,9.5258,186.9761,0.6346,1.8912,Act-1
2.4581,1,1.3085,7.8874,190.6444,0.6536,2.056,Act1
1.375,0,1.1445,8.1092,136.2746,0.6158,2.0297,Act1
-3.5537,1,1.1186,8.2083,290.5612,0.6362,2.0464,Act-1
-6.1398,1,1.1112,8.3078,387.2768,0.6307,2.047,Act-1
-0.2657,0,1.0419,8.4074,75.5805,0.5674,1.9316,Act-1
-0.9555,0,1.0298,8.4699,125.1716,0.6309,1.9078,Act-1
0.2507,0,1.2532,8.1624,50.9079,0.6685,1.9754,Act-1
0.0127,1,1.3654,7.9722,101.8159,0.6574,2.1164,Act-1
-1.7084,0,1.0,7.7,101.8159,0.5483,1.9361,Act-1
-2.0113,0,1.0,7.6154,119.8266,0.5523,1.9507,Act-1
-0.4693,0,1.2932,8.2833,50.6629,0.6467,1.9814,Act-1
1.2046,1,1.4379,7.7917,50.6629,0.6773,2.118,Act-1
1.1798,0,1.2629,7.6167,50.6629,0.6281,2.009,Act-1
0.6756,1,1.3399,8.5728,49.3022,0.7166,2.0342,Act-1
2.0245,0,1.1723,8.0012,49.1797,0.6759,2.0245,Act-1
1.3465,1,1.3399,8.5251,91.9855,0.7061,2.0349,Act-1
1.7955,1,1.3185,8.8056,65.7072,0.6896,2.1183,Act-1
0.0844,0,1.2517,9.3125,65.7072,0.6782,2.1053,Act-1
2.1778,1,1.3812,8.2799,47.6964,0.7551,2.0828,Act1
-0.0357,0,1.3281,8.8007,47.6964,0.7614,2.0789,Act-1
0.85,0,1.246,8.725,65.7072,0.7768,2.0896,Act-1
1.3784,0,1.2312,8.2477,65.7072,0.708,2.101,Act-1
1.4572,1,1.336,8.338,65.7072,0.7252,2.1046,Act-1
0.4472,1,1.4027,8.3512,31.2914,0.6958,2.0094,Act-1
3.3838,1,1.31,7.9064,47.6964,0.692,2.0687,Act-1
3.7208,1,1.3574,7.9074,0.0,0.6886,2.0821,Act-1
2.4884,1,1.2824,7.5794,16.7855,0.653,2.0184,Act-1
2.045,1,1.2591,7.7153,16.7855,0.6643,2.153,Act-1
3.269,1,1.4738,7.6533,0.0,0.6617,2.1376,Act-1
2.7947,1,1.4356,7.7315,55.8816,0.6705,2.0187,Act-1
5.0258,0,1.4962,7.8264,42.6833,0.6452,2.0553,Act-1
2.8727,1,1.4,7.9804,42.6833,0.6675,2.1359,Act-1
3.3034,1,1.3373,7.74,60.6941,0.6398,2.0373,Act-1
4.6193,1,1.2694,7.6389,0.0,0.6272,2.0631,Act-1
1.3541,1,1.3538,7.8651,65.7944,0.6337,2.0494,Act-1
2.8486,1,1.3295,7.84,129.1383,0.6438,2.0131,Act-1
1.6744,0,1.1974,7.6842,60.6941,0.6024,2.0164,Act-1
2.635,1,1.4376,7.6889,55.8816,0.6651,2.0095,Act-1
1.9976,0,1.1841,7.6667,60.6941,0.5971,2.0101,Act-1
1.0901,1,1.424,8.451,128.05,0.6818,2.051,Act-1
2.0173,0,1.2322,7.7632,60.6941,0.613,1.9967,Act-1
1.5519,1,1.3373,7.6759,77.4796,0.6256,2.0226,Act-1
2.3206,0,1.1827,7.5606,60.6941,0.6084,2.0165,Act-1
3.6342,0,1.2179,7.8843,42.6833,0.6185,2.0253,Act-1
1.8884,0,1.2139,7.8235,32.8972,0.6155,2.0068,Act-1
-0.737,0,1.2482,8.2604,93.5913,0.6176,1.9537,Act-1
2.9287,1,1.2799,8.046,103.3774,0.6407,2.0718,Act1
4.5222,1,1.4711,7.75,42.6833,0.6746,2.1175,Act1
-0.3185,0,1.0,8.6528,170.7334,0.6605,1.9116,Act-1
-3.2626,0,1.0,9.1667,256.1001,0.554,2.0127,Act-1
-1.4102,0,1.0,8.2333,85.3667,0.5812,1.7596,Act-1
-2.2246,0,1.0,8.9333,170.7334,0.554,1.9692,Act-1
0.3136,0,1.2631,8.2193,121.3878,0.6257,2.0618,Act-1
-2.0339,0,1.2595,8.7259,60.6941,0.8243,1.9837,Act-1
-2.6084,0,1.11,9.0893,0.0,2.5487,0.2897,Act-1
-3.7265,0,1.161,11.198,0.0,1.8181,0.4498,Act-1
1.5312,0,1.2808,8.2124,18.0108,0.6696,2.0,Act-1
3.5101,1,1.4014,8.316,16.7855,0.7691,2.0736,Act1
-0.7045,0,1.3009,9.2545,42.6833,0.7043,2.0683,Act-1
2.9457,0,1.301,8.5756,42.6833,1.014,2.0433,Act1
2.0853,1,1.4643,8.3148,42.6833,0.6741,2.0015,Act-1
4.3673,1,1.4466,8.2018,0.0,0.7521,2.0843,Act1
2.018,0,1.3499,9.1111,0.0,0.6619,2.1313,Act1
1.9099,0,1.3456,8.5741,0.0,0.6741,2.0764,Act1
-1.0195,0,1.2145,8.7549,128.05,0.585,2.0104,Act-1
-0.1596,0,1.0684,8.8958,0.0,0.5805,1.9399,Act-1
0.7498,0,1.109,9.5595,0.0,0.5517,2.051,Act-1
0.5915,0,1.0946,9.1579,0.0,0.5535,2.0112,Act-1
-0.0715,0,1.2762,9.1597,124.4628,0.678,1.9781,Act-1
0.6562,0,1.2932,8.7583,39.0961,0.706,1.9762,Act-1
1.2292,1,1.3788,8.6026,170.7334,0.667,2.0159,Act-1
1.7113,1,1.4041,8.2992,73.6834,0.6957,2.0286,Act-1
1.7871,0,1.324,9.3009,0.0,0.669,2.0027,Act-1
0.7925,0,1.3048,8.2976,0.0,0.6897,1.9731,Act-1
-3.6086,0,1.0271,9.5385,213.4167,0.557,1.9277,Act-1
0.4578,0,1.2995,8.7727,0.0,0.7042,1.9928,Act-1
0.458,1,1.2907,7.8889,3.1243,0.7279,2.096,Act-1
-4.1236,0,1.0228,9.4889,256.1001,0.5566,1.9444,Act-1
-1.0749,1,1.2743,8.5071,60.6941,0.7141,2.0549,Act-1
5.8891,1,1.4308,8.2401,0.0,1.1471,2.0566,Act1
1.1156,1,1.4699,8.7424,85.3667,0.7008,2.0265,Act-1
-0.2516,1,1.424,8.5098,42.6833,0.6944,2.0508,Act-1
2.7042,1,1.3957,8.8148,42.6833,0.7066,2.0571,Act-1
0.7043,1,1.4545,8.3333,42.6833,0.7396,2.0987,Act-1
3.6146,1,1.606,8.2759,128.05,0.7145,2.1706,Act-1
2.3718,1,1.3202,8.2056,78.7048,0.6889,2.0471,Act1
1.8618,1,1.4186,8.5139,18.0108,0.7403,2.0427,Act-1
-3.2834,0,1.0782,9.9038,42.6833,0.6158,1.921,Act-1
-2.4048,0,1.0821,9.963,42.6833,0.5996,1.8483,Act-1
3.5624,1,1.4057,8.1433,18.0108,0.7524,2.0381,Act1
0.8441,0,1.2132,8.7984,60.6941,0.6684,2.0942,Act-1
1.6164,0,1.2607,8.1528,0.0,0.6564,2.0126,Act-1
-13.4362,0,1.0088,8.4792,682.9335,0.6319,2.0536,Act-1
2.3751,1,1.4563,7.9683,0.0,0.693,2.0548,Act-1
-2.532,0,1.11,10.8532,0.0,0.7621,1.5459,Act-1
2.661,0,1.1257,7.9278,60.6941,0.6243,2.0266,Act-1
3.0843,1,1.2683,7.6567,32.8972,0.6365,2.0812,Act-1
2.2518,1,1.506,7.8913,0.0,0.6918,2.1046,Act1
2.0292,0,1.2462,8.022,60.6941,0.6996,2.0537,Act-1
3.6179,1,1.4352,7.7778,0.0,0.695,2.0064,Act-1
2.4807,1,1.3415,7.9792,17.8882,0.6716,2.0851,Act-1
3.3511,0,1.1869,7.5185,0.0,0.6301,2.0544,Act-1
3.6631,1,1.3127,8.2012,78.7048,0.7014,2.1093,Act1
3.1235,1,1.2817,8.0345,18.0108,0.6653,2.0818,Act1
5.3313,1,1.5091,7.7206,85.3667,0.6946,2.042,Act-1
2.6761,1,1.3647,7.9583,42.6833,0.6956,2.0344,Act-1
2.3667,1,1.3227,8.0614,42.6833,0.6856,2.0012,Act1
3.2463,1,1.3984,7.7857,0.0,0.7192,2.0369,Act1
2.6056,0,1.1757,7.6232,0.0,0.6446,2.1244,Act-1
2.9635,0,1.1736,7.5972,0.0,0.6411,2.0781,Act1
-0.4693,0,1.2932,8.2833,50.6629,0.6467,1.9814,Act-1
1.9861,1,1.3501,7.8088,0.0,0.6785,2.0501,Act-1
-0.1416,0,1.3139,8.3148,32.8972,0.6659,1.9768,Act-1
0.5987,1,1.2526,8.0476,18.0108,0.7213,2.0948,Act-1
1.0854,0,1.038,7.9271,0.0,0.6786,2.0288,Act-1
1.8858,1,1.2669,7.9177,45.8077,0.6646,2.1231,Act-1
4.9503,1,1.2653,7.4167,18.0108,0.6481,2.0744,Act1
3.5163,1,1.3224,7.8988,18.0108,0.6696,2.0437,Act1
4.2064,1,1.2669,7.8782,42.6833,0.6804,2.0741,Act-1
3.213,1,1.2405,7.8477,18.0108,0.6546,2.0634,Act1
5.0397,1,1.3825,7.6275,18.0108,0.6831,2.0683,Act1
3.2406,1,1.2753,7.7986,0.0,0.6527,2.0629,Act-1
4.4352,1,1.2664,8.0921,121.3882,0.8562,1.9423,Act1
1.4869,1,1.3495,8.2632,18.0108,0.6591,2.0299,Act-1
-1.0342,1,1.2188,8.2202,18.0108,0.7423,2.0485,Act-1
-2.9041,0,1.0298,9.3056,213.4167,0.554,1.9238,Act-1
1.2185,0,1.3466,8.1429,35.899,0.6815,2.0361,Act-1
4.1916,1,1.2873,8.1809,121.3882,0.9199,1.936,Act-1
-0.9792,0,1.3139,8.4259,32.8972,0.6595,1.959,Act-1
1.2268,0,1.238,8.7111,103.3774,0.674,2.0939,Act-1
3.9613,1,1.4641,7.8838,34.7963,0.7108,2.0332,Act1
1.3083,1,1.3257,7.7692,18.0108,0.6602,2.0488,Act-1
5.6539,1,1.3008,9.3611,36.0215,0.692,2.0101,Act1
2.8382,1,1.3387,8.203,78.7048,0.7077,2.0746,Act-1
3.9893,1,1.3235,8.2906,18.0108,0.7014,2.019,Act1
0.8969,1,1.3804,7.5128,37.9206,0.6582,2.1133,Act-1
3.1019,1,1.3882,8.6061,36.0215,0.6744,2.0973,Act-1
4.6599,1,1.3579,7.9956,60.6941,0.8437,2.0009,Act1
4.9335,1,1.3327,8.6578,36.0215,0.7278,2.0168,Act-1
2.3152,1,1.3712,8.1961,103.3774,0.6849,2.026,Act1
2.4229,1,1.5468,7.9074,34.6738,0.7316,2.0527,Act-1
1.8111,1,1.5328,7.8478,34.6738,0.7064,2.0564,Act-1
2.3528,1,1.4685,7.7963,34.6738,0.7075,2.0459,Act-1
1.8269,1,1.5479,7.8125,34.6738,0.6967,2.0594,Act-1
1.8111,1,1.557,7.8478,34.6738,0.7064,2.0587,Act-1
4.1018,1,1.494,7.8241,34.6738,0.6898,2.0625,Act-1
2.0565,1,1.3742,7.6795,72.043,0.67,2.0298,Act-1
2.3528,1,1.4727,7.7963,34.6738,0.7075,2.0471,Act-1
3.1175,1,1.3804,7.5256,34.7963,0.6637,2.0593,Act1
7.4257,1,1.4911,8.225,36.0215,0.6641,2.0822,Act1
-1.4369,0,1.2024,8.4857,292.1216,0.7407,1.9947,Act-1
3.1748,0,1.188,8.8571,36.0215,0.607,2.043,Act1
1.9754,1,1.2496,8.0153,18.0108,0.6997,2.0457,Act1
0.1898,0,1.2559,8.5889,18.0108,0.63,1.9972,Act-1
-3.9534,0,1.0598,8.8395,193.4312,0.5983,1.9199,Act-1
1.4852,0,1.2015,8.2383,34.2932,0.6804,2.0146,Act-1
-1.4097,0,1.2559,8.8167,35.7765,0.669,1.9889,Act-1
-0.4521,0,1.1686,9.5972,128.05,0.6117,1.888,Act-1
1.7889,1,1.4019,8.0,42.6833,0.6803,2.0331,Act-1
1.8945,0,1.3675,8.2576,42.6833,0.6818,1.9944,Act-1
-0.2499,0,1.203,9.6667,85.3667,0.6117,1.8012,Act-1
-0.053,0,1.0726,9.3444,85.3667,0.7123,1.7763,Act-1
0.886,0,1.2757,8.5606,85.3667,0.6531,2.0,Act-1
-0.8633,0,1.096,8.6548,85.3667,0.6228,1.9665,Act-1
-2.6695,0,1.0243,9.2564,213.4167,0.5647,1.9854,Act-1
0.1666,1,1.3663,8.4608,77.2346,0.6731,2.0058,Act-1
1.2951,0,1.0558,9.5357,42.6833,0.8757,1.5875,Act-1
-1.8454,0,1.0726,9.9,170.7334,0.5632,1.862,Act-1
3.1851,1,1.5328,8.3244,101.7717,0.7083,2.0543,Act1
3.375,1,1.3957,8.7593,85.3667,0.6941,2.0574,Act1
0.4022,0,1.2775,9.1111,170.7334,0.642,1.987,Act-1
-0.9645,1,1.4679,8.4516,512.2001,0.6556,2.1665,Act-1
-0.6982,0,1.2393,8.7037,85.3667,0.8334,1.9624,Act-1
0.0451,0,1.2875,9.1061,128.05,0.6394,1.9534,Act-1
3.7986,1,1.4665,8.0714,128.05,0.7071,2.0466,Act1
4.5076,0,1.2019,7.7427,42.6833,0.6679,2.0635,Act-1
4.2093,1,1.4764,8.1528,42.6833,0.7826,2.0062,Act1
3.9199,1,1.3757,8.0833,128.05,0.6977,2.0892,Act1
1.8119,0,1.3039,8.4222,42.6833,0.7401,1.9615,Act1
0.537,0,1.3139,8.537,42.6833,0.6741,1.9676,Act-1
1.4832,0,1.2398,8.1042,60.6941,0.6526,2.0935,Act-1
-0.7891,0,1.0726,9.2222,42.6833,0.8774,1.8052,Act-1
4.8901,1,1.2867,7.6429,85.3667,0.6391,2.0601,Act1
2.5449,1,1.4355,8.0119,42.6833,0.6965,2.1345,Act1
1.5161,0,1.2932,8.2833,42.6833,0.6641,1.9996,Act-1
4.3884,1,1.4371,7.9141,42.6833,0.7644,1.9835,Act1
3.1384,1,1.3848,8.0965,42.6833,0.6877,2.0619,Act-1
1.0117,1,1.3104,8.4601,77.0991,0.7053,2.0371,Act-1
3.6606,1,1.4441,7.8864,42.6833,0.6946,2.015,Act1
0.6678,0,1.0388,8.1042,78.7048,0.636,1.9207,Act-1
3.5606,0,1.2153,7.9591,42.6833,0.6643,2.0423,Act-1
0.5509,0,1.0726,9.0333,85.3667,0.5812,1.9164,Act-1
1.7318,0,1.0532,8.5641,85.3667,0.5831,1.9582,Act-1
3.3578,1,1.2263,7.7757,42.6833,0.661,2.0629,Act-1
2.3633,1,1.4501,8.4936,146.0608,0.6662,2.033,Act-1
0.988,0,1.253,8.3929,60.6941,0.647,2.0024,Act1
-1.8052,0,1.0529,8.9383,213.4167,0.5835,1.9968,Act-1
0.7453,0,1.2664,8.5,60.6941,0.6552,1.9998,Act-1
1.4272,0,1.2656,8.4133,60.6941,0.7761,1.9717,Act-1
3.9277,1,1.3939,8.2343,60.6941,0.7186,2.0396,Act-1
1.2769,0,1.2757,8.3485,42.6833,0.6531,1.9766,Act-1
3.1343,1,1.2255,7.7634,42.6833,0.661,2.0883,Act-1
-0.1609,0,1.0633,8.5333,60.6941,0.6895,1.8534,Act-1
2.0557,1,1.1633,7.5776,42.6833,0.651,2.0731,Act1
2.2297,1,1.2448,8.1167,0.0,0.6958,2.0667,Act-1
2.573,1,1.2022,7.6136,42.6833,0.6851,2.1842,Act1
3.7358,1,1.265,7.4877,0.0,0.6615,2.1195,Act1
-0.7892,1,1.2515,8.7481,469.5168,0.6423,2.0332,Act-1
1.0767,1,1.3902,8.6967,1067.0836,0.6707,2.0547,Act1
2.045,1,1.2591,7.7153,16.7855,0.6643,2.153,Act1
3.4002,1,1.5054,7.807,0.0,0.7241,2.117,Act-1
3.0225,1,1.3788,8.0729,42.6833,0.6989,2.0091,Act-1
2.6802,1,1.392,8.4211,85.3667,0.6924,2.017,Act1
1.9348,1,1.2764,8.0996,0.0,0.6811,2.0143,Act1
3.1872,1,1.4991,8.5086,103.3774,0.6629,2.1402,Act1
2.8618,1,1.5066,8.0427,103.3774,0.6925,2.1249,Act-1
2.3507,1,1.2413,8.0461,42.6833,0.668,2.0871,Act1
3.2754,1,1.3647,7.8125,0.0,0.6956,2.0114,Act-1
2.1931,1,1.3647,7.875,0.0,0.6934,2.0064,Act1
3.1671,1,1.2416,7.71,42.6833,0.6501,2.0589,Act1
0.9687,0,1.2593,8.4615,85.3667,0.6359,1.9907,Act-1
3.1554,1,1.3428,8.1481,0.0,0.7009,1.9966,Act1
1.9713,0,1.3811,7.9667,0.0,0.6944,1.9943,Act1
-0.0616,1,1.4288,8.7679,36.0215,0.7563,1.9979,Act-1
2.3788,1,1.4373,7.9167,36.0215,0.7322,1.9568,Act-1
4.8132,1,1.292,8.1556,85.3667,0.6788,2.1215,Act-1
4.3626,1,1.2169,7.4619,0.0,0.6586,2.0858,Act1
1.7756,0,1.126,7.6012,0.0,0.6329,2.0556,Act-1
1.3244,0,1.2793,8.3472,17.8882,0.7096,2.0303,Act-1
2.2361,0,1.2698,8.1616,17.8882,0.7644,1.9391,Act-1
1.8236,0,1.2902,8.6667,17.8882,0.6918,2.0715,Act-1
2.2361,0,1.2674,8.1616,17.8882,0.7644,1.9387,Act-1
1.8966,0,1.2674,8.5152,17.8882,0.703,1.9587,Act-1
2.3709,0,1.2698,8.0379,17.8882,0.7974,1.9328,Act-1
2.2361,0,1.2698,8.1616,17.8882,0.7644,1.9389,Act-1
-0.8638,0,1.1373,8.8194,54.0323,0.667,1.9127,Act-1
1.1503,0,1.2674,8.4697,35.7765,0.6829,1.9587,Act-1
-0.7012,0,1.0923,8.4853,103.3774,0.6587,1.9462,Act1
-0.3859,0,1.0839,9.1625,103.3774,0.6021,1.9872,Act-1
-1.123,0,1.0923,8.7941,103.3774,0.6082,1.9659,Act-1
-0.6964,0,1.0923,8.4482,103.3774,0.7054,1.939,Act-1
-1.2297,0,1.1086,8.5292,146.0608,0.6563,1.9803,Act-1
1.4327,0,1.259,8.5417,18.0108,0.7705,2.0359,Act-1
1.9115,0,1.2674,8.2071,18.0108,0.753,1.9277,Act-1
0.9406,0,1.259,8.9167,18.0108,0.6919,2.0498,Act-1
1.067,0,1.2785,8.0,36.0215,0.6868,1.9549,Act-1
3.195,1,1.2829,7.7204,36.0215,0.6742,2.0513,Act1
4.1597,1,1.2827,7.4896,18.0108,0.6673,2.0922,Act-1
3.4981,1,1.2895,8.1458,18.0108,0.6511,2.0727,Act-1
-0.5665,0,1.1601,9.2778,36.0215,0.6349,1.9328,Act-1
0.4659,0,1.112,8.3148,36.0215,0.6711,1.9898,Act-1
-0.3808,0,1.2982,8.2,34.6738,0.6769,1.9084,Act-1
-1.69,0,1.2209,8.386,146.0608,0.6239,1.938,Act-1
2.0827,1,1.4024,8.2917,128.05,0.7027,2.0651,Act-1
3.6667,1,1.2898,7.8755,0.0,0.7117,2.0195,Act1
5.0091,1,1.3429,7.8889,42.6833,0.7075,2.1068,Act-1
-2.5494,0,1.1009,9.2222,128.05,0.5996,1.8381,Act-1
1.2492,1,1.3822,8.553,213.4167,0.6871,2.0622,Act-1
2.1341,1,1.3884,8.2917,128.05,0.7027,2.0623,Act-1
2.0473,0,1.1747,7.4233,0.0,0.6709,2.0851,Act1
-1.5489,0,1.1084,8.5866,92.2745,0.6511,2.0089,Act-1
2.7425,1,1.3944,7.5833,0.0,0.6723,2.0378,Act-1
0.8632,1,1.3337,8.5227,213.4167,0.6691,2.0733,Act-1
-0.1582,1,1.338,8.1458,242.7764,0.6314,2.1196,Act-1
-0.5003,1,1.3088,8.3944,298.7834,0.6436,2.1346,Act-1
2.7527,1,1.3923,8.098,85.3667,0.71,2.1079,Act-1
2.9189,0,1.093,8.276,0.0,0.7893,1.9828,Act1
2.9161,0,1.1675,7.3712,0.0,0.6487,2.1597,Act-1
2.9391,1,1.3749,7.951,0.0,0.7302,1.9973,Act-1
2.1475,1,1.3956,8.3519,85.3667,0.7255,2.1023,Act-1
2.7209,1,1.4109,8.0,0.0,0.7481,2.1027,Act1
2.3698,1,1.3583,7.6917,18.0108,0.6848,2.0084,Act-1
-1.3577,0,1.1601,9.1667,36.0215,0.6463,1.9288,Act-1
2.0857,1,1.3429,8.25,128.05,0.6825,2.0735,Act-1
1.4964,0,1.2745,7.7857,35.7765,0.6643,2.0086,Act-1
-0.9144,0,1.1885,8.8,85.3667,0.6314,1.9275,Act-1
0.1532,0,1.2008,8.679,60.6941,0.715,1.9171,Act-1
1.6549,0,1.1554,7.7133,85.3667,0.65,2.1457,Act-1
-0.8686,0,1.1562,8.4444,35.7765,0.6227,1.6428,Act-1
-0.7946,0,1.1748,8.7917,36.0215,0.6402,1.9309,Act-1
2.1062,0,1.1358,7.6161,0.0,0.6243,2.0607,Act-1
1.3364,0,1.2674,8.3788,18.0108,0.6872,1.9618,Act-1
2.3223,1,1.3841,8.0,32.8972,0.7009,2.0256,Act-1
1.0787,0,1.2785,7.9,18.0108,0.6908,1.9599,Act-1
-0.9333,0,1.08,8.8148,42.6833,0.6033,1.7758,Act-1
-0.6882,0,1.0779,8.8519,60.6941,0.6033,1.8067,Act-1
0.3422,0,1.234,8.386,18.0108,0.6853,1.9984,Act-1
-1.0013,0,1.2335,8.5,213.4167,0.6295,2.048,Act-1
3.6131,1,1.2932,7.5802,18.0108,0.6354,2.0693,Act1
2.492,1,1.2782,7.7706,18.0108,0.6723,2.1142,Act-1
4.4893,1,1.2835,7.6296,18.0108,0.6761,2.0706,Act-1
4.1817,1,1.4179,7.5161,18.0108,0.6847,2.0719,Act1
1.9278,0,1.3368,8.0,0.0,0.7172,2.0302,Act-1
0.337,0,1.3158,8.7451,18.0108,0.6546,1.9582,Act1
2.4502,1,1.4301,8.413,0.0,0.6937,2.0833,Act1
1.9047,1,1.4301,8.3913,18.0108,0.6842,2.0833,Act-1
2.6365,1,1.3991,8.1667,18.0108,0.7008,2.0964,Act-1
3.5604,1,1.2969,7.8031,18.0108,0.7288,2.0286,Act1
4.3721,1,1.3049,7.5182,18.0108,0.717,2.063,Act1
1.7944,0,1.2513,7.7157,0.0,0.6412,1.99,Act-1
4.7787,1,1.4415,7.5755,16.5405,0.6644,2.0668,Act-1
0.9718,0,1.19,8.1167,0.0,0.6241,2.0076,Act-1
2.9767,0,1.2797,7.6261,0.0,0.6707,2.0609,Act1
2.0407,0,1.227,7.8041,0.0,0.6773,1.9827,Act-1
1.8898,1,1.2949,7.9693,36.0215,0.7009,2.0521,Act-1
1.412,1,1.2427,8.3489,92.2745,0.6938,2.0525,Act-1
1.4562,0,1.2839,8.412,18.0108,0.7685,1.9392,Act-1
1.4562,0,1.2814,8.412,18.0108,0.7685,1.9388,Act-1
1.8179,1,1.2764,7.875,21.1351,0.6456,2.1169,Act-1
1.1324,0,1.2387,8.3929,60.6941,0.6525,1.9769,Act-1
1.4562,0,1.2814,8.412,18.0108,0.7685,1.9387,Act-1
2.1776,1,1.2764,7.7361,21.1351,0.6627,2.1152,Act-1
1.8179,1,1.2764,7.875,21.1351,0.6456,2.1169,Act-1
1.8841,0,1.2253,8.2188,60.6941,0.6394,1.9852,Act-1
1.1324,0,1.2387,8.3929,60.6941,0.6525,1.977,Act-1
1.4562,0,1.2839,8.412,18.0108,0.7685,1.9389,Act-1
0.8508,0,1.2992,8.2639,60.8164,0.6913,1.9576,Act-1
0.8219,0,1.2933,8.3333,18.0108,0.7148,1.9568,Act-1
2.537,1,1.2813,7.5972,21.1351,0.6797,2.1133,Act-1
0.991,1,1.2826,7.5167,21.1351,0.6443,2.1216,Act-1
1.2584,0,1.2382,7.9524,60.6941,0.6475,1.9801,Act-1
0.8792,0,1.246,8.0256,60.6941,0.6551,1.9754,Act-1
4.7533,1,1.2706,7.4322,18.0108,0.6597,2.067,Act1
4.3602,1,1.3673,7.7133,18.0108,0.6739,2.0637,Act-1
0.1347,0,1.2547,8.2932,0.0,0.878,1.9776,Act-1
-2.0535,0,1.027,8.8611,128.05,0.5886,1.7571,Act-1
-1.832,0,1.1009,9.1389,170.7334,0.5886,1.8392,Act-1
-0.7132,0,1.0378,8.0685,0.0,0.7159,2.0016,Act-1
3.6749,1,1.3362,8.6181,85.3667,0.8595,2.0711,Act1
3.5831,1,1.3457,7.9757,85.3667,0.7144,2.0607,Act-1
2.5701,1,1.4324,8.1178,0.0,0.8778,2.0732,Act1
2.482,1,1.4476,8.07,0.0,0.7451,2.0963,Act1
1.0218,1,1.3515,8.6364,170.7334,0.7114,2.1216,Act-1
2.9365,1,1.4309,8.1867,85.3667,0.7107,2.07,Act-1
7.8157,1,1.5395,7.6024,42.6833,0.7594,2.1254,Act1
1.3547,0,1.3459,8.4333,0.0,0.6996,2.0022,Act-1
0.2572,0,1.11,8.7143,0.0,0.597,1.8877,Act-1
1.1477,0,1.2885,8.9848,0.0,0.6394,1.9585,Act-1
-2.3824,0,1.037,9.6639,85.3667,0.615,1.8323,Act-1
-1.0964,0,1.0648,10.1439,74.2637,0.8531,1.5627,Act-1
0.5267,0,1.2274,9.0425,74.2637,0.8085,1.922,Act-1
-0.9431,1,1.3446,8.8347,191.2107,0.6914,2.0636,Act-1
-2.1689,0,1.177,9.2101,191.2107,0.6678,1.8865,Act-1
1.4735,1,1.2788,8.5214,74.2637,0.6722,2.0478,Act-1
-4.2004,0,1.0421,9.6065,445.5822,0.6692,2.0069,Act-1
1.5704,0,1.0209,7.9663,13.3401,0.6693,1.9367,Act-1
1.5704,0,1.0218,7.9663,13.3401,0.6693,1.9493,Act-1
0.5821,1,1.3511,8.5411,36.0215,0.7244,2.0736,Act-1
1.85,1,1.6662,8.769,42.6833,0.7593,2.162,Act1
-0.2896,0,1.0821,9.1327,0.0,0.7482,1.8568,Act-1
-1.8756,0,1.1243,9.8939,0.0,0.6651,1.942,Act-1
-0.7157,0,1.11,9.5198,0.0,0.7135,1.8381,Act-1
0.8741,1,1.3625,7.8458,18.0108,0.6731,2.1396,Act-1
1.6324,1,1.4145,8.6346,0.0,0.8041,1.9646,Act-1
0.4854,0,1.3056,8.9773,81.7794,0.6912,2.0062,Act-1
2.1268,1,1.4891,8.1711,55.8816,0.7265,2.0406,Act1
3.8422,1,1.3892,8.1865,16.2825,0.8281,2.0811,Act-1
3.4765,1,1.3892,8.3717,16.2825,0.7953,2.0843,Act-1
2.953,1,1.3966,8.3264,16.2825,0.7646,2.0894,Act-1
3.8422,1,1.3906,8.1865,16.2825,0.8281,2.0808,Act-1
1.8205,0,1.325,8.4504,16.2825,0.8226,2.0498,Act-1
3.643,1,1.3446,8.1468,34.1707,0.7983,2.0938,Act-1
2.4173,1,1.3543,8.0278,34.1707,0.7411,2.1027,Act-1
3.0442,1,1.3487,8.1267,85.3667,0.7244,2.061,Act1
-2.5667,0,1.0,7.9,0.0,1.2523,1.1913,Act-1
2.4864,1,1.2736,7.7442,77.4796,0.656,2.134,Act-1
2.2877,0,1.0912,7.8306,85.3667,0.6257,2.1398,Act-1
1.8762,1,1.3894,7.7677,32.8972,0.6537,2.1358,Act-1
-0.3,0,1.1444,8.1667,75.5805,0.6138,1.9657,Act-1
3.3552,1,1.4476,7.99,85.3667,0.7254,2.0971,Act-1
3.1678,1,1.3714,8.0217,42.6833,0.69,2.0753,Act-1
1.408,0,1.169,7.8333,85.3667,0.6542,2.1472,Act-1
0.9986,0,1.2675,8.2719,42.6833,0.6665,2.0551,Act-1
1.0727,0,1.2371,8.3485,0.0,0.7196,1.946,Act-1
3.2719,1,1.3746,8.114,42.6833,0.6877,2.0557,Act-1
0.5195,0,1.2382,8.5944,160.9472,0.6211,2.0243,Act-1
0.6546,1,1.4535,8.2879,169.1718,0.6481,2.1164,Act-1
6.9136,1,1.6883,7.6325,42.6833,0.6932,2.0939,Act-1
1.5064,0,1.3139,8.4259,42.6833,0.6795,1.9845,Act-1
4.1507,1,1.4417,7.8698,59.2238,0.648,2.0749,Act-1
2.0533,1,1.3346,8.8269,60.6941,0.6299,2.1604,Act-1
1.1185,0,1.2109,8.0343,146.0608,0.6048,2.034,Act-1
3.0575,1,1.2486,7.4375,42.6833,0.6588,2.2017,Act1
0.3942,0,1.3139,8.537,42.6833,0.6741,1.9686,Act-1
2.6997,1,1.3195,7.5625,42.6833,0.652,2.1566,Act-1
3.8336,0,1.1419,7.3452,42.6833,0.6224,2.0831,Act1
3.8568,0,1.1513,7.3442,42.6833,0.6369,2.0643,Act1
3.7261,1,1.2573,7.4583,42.6833,0.651,2.0773,Act1
2.6698,1,1.304,7.5917,42.6833,0.6443,2.0267,Act-1
2.0099,1,1.3114,8.0682,188.7441,0.6381,2.0359,Act-1
2.3799,1,1.3126,7.9583,136.2746,0.6406,2.0409,Act-1
1.8456,0,1.3404,7.8167,42.6833,0.6631,1.9959,Act-1
-2.4928,0,1.0,9.2,213.4167,0.5382,1.9126,Act-1
-3.0075,0,1.0,9.1944,256.1001,0.5406,1.9338,Act-1
-2.5079,0,1.0,8.6667,188.7441,0.558,2.0171,Act-1
2.0514,1,1.41,8.1071,170.7334,0.6782,2.0615,Act1
-0.9283,0,1.2031,8.0877,146.0608,0.6117,1.8902,Act-1
-8.2297,0,1.0,8.637,597.5668,0.5694,2.0465,Act-1
-1.0712,0,1.1701,8.4737,213.4167,0.6078,2.0184,Act-1
-0.8748,0,1.1593,8.3333,213.4167,0.6048,2.02,Act-1
-4.5347,0,1.0,8.7572,341.4667,0.5639,1.9993,Act-1
-2.7392,0,1.0,8.9722,213.4167,0.554,1.9897,Act-1
-1.0896,0,1.0,8.5109,213.4167,0.633,1.9827,Act-1
-4.5347,0,1.0,8.7572,341.4667,0.5639,1.999,Act-1
1.4264,0,1.1054,8.0032,128.05,0.6284,2.1394,Act-1
1.6653,0,1.1039,7.9784,128.05,0.6262,2.1449,Act-1
1.8182,0,1.0913,7.7214,85.3667,0.6219,2.1398,Act-1
1.4063,0,1.1135,8.0545,85.3667,0.6379,2.1358,Act-1
2.5512,0,1.1793,7.5482,42.6833,0.6148,2.0897,Act-1
3.1276,0,1.1932,7.7685,103.3774,0.6992,2.0444,Act1
3.6586,0,1.2454,7.6282,42.6833,0.6228,2.0493,Act-1
3.1399,1,1.4262,8.0812,42.6833,0.8033,2.0939,Act1
5.3416,1,1.3728,8.2164,85.3667,0.8718,1.9339,Act-1
3.2341,1,1.4262,7.7749,42.6833,1.0035,2.0772,Act-1
-0.386,0,1.2563,8.3889,128.05,0.6164,2.0173,Act-1
-1.3939,0,1.2054,8.4036,246.3139,0.6342,2.1572,Act-1
-1.9233,0,1.2597,8.5152,288.9972,0.64,2.1489,Act-1
4.7008,1,1.3837,8.0784,42.6833,0.8037,1.9884,Act-1
0.7189,0,1.2832,8.7222,128.05,0.6432,1.9675,Act-1
1.4956,1,1.3374,8.125,188.7441,0.6615,2.1027,Act-1
1.5987,1,1.2589,8.0889,292.1216,0.6155,2.0212,Act-1
5.2158,1,1.2908,7.4861,42.6833,0.6342,2.0783,Act-1
2.5141,1,1.4373,7.9815,42.6833,0.7557,2.1017,Act-1
2.1332,0,1.2969,8.1806,42.6833,0.7382,1.9474,Act-1
4.1452,1,1.3866,8.0719,85.3667,0.7479,2.0308,Act1
3.9228,1,1.3959,7.7852,42.6833,0.7262,2.0376,Act1
1.0954,0,1.2969,8.4167,85.3667,0.6567,1.9663,Act-1
2.9623,1,1.3814,7.7667,42.6833,0.6843,2.014,Act1
1.9852,0,1.1442,7.6346,128.05,0.6363,2.1572,Act-1
7.3663,1,1.6881,7.7372,170.7334,0.7285,2.0351,Act-1
1.0954,0,1.2975,8.4167,85.3667,0.6567,1.9663,Act1
1.8844,1,1.4507,7.8636,42.6833,0.708,2.1123,Act1
1.4869,0,1.3154,8.0238,42.6833,0.6722,1.9651,Act-1
1.3002,0,1.3039,8.7,85.3667,0.6655,1.9855,Act-1
-3.8879,0,1.0,8.7454,316.7942,0.559,2.0543,Act-1
1.2882,0,1.2321,8.2137,85.3667,0.6579,1.967,Act-1
3.7351,1,1.2511,7.7,146.0608,0.6198,2.031,Act-1
3.8796,1,1.2616,7.8611,146.0608,0.6452,2.0309,Act1
2.606,0,1.2718,8.1722,42.6833,0.7635,1.9578,Act1
1.3318,0,1.2954,7.8958,42.6833,0.6563,1.9898,Act1
0.9403,0,1.2846,8.2593,85.3667,0.6444,1.9907,Act-1
1.4239,0,1.2496,7.7424,60.6941,0.6262,2.0029,Act-1
1.4984,1,1.2996,7.75,170.7334,0.6059,2.158,Act-1
-1.3234,0,1.0,8.4,128.05,0.548,1.9404,Act-1
1.8174,0,1.2387,7.9246,60.6941,0.7399,1.9506,Act-1
1.6789,1,1.3041,7.9861,45.8077,0.6528,2.1126,Act-1
3.0569,1,1.3861,7.4321,42.6833,0.6495,2.0531,Act1
3.8995,1,1.3041,7.9972,42.6833,0.6577,2.0759,Act1
5.4205,1,1.3909,7.6337,42.6833,0.6981,2.079,Act-1
1.2146,0,1.2629,7.9167,42.6833,0.6358,1.9777,Act-1
2.7989,1,1.3638,7.5247,42.6833,0.6721,2.049,Act-1
-1.0308,0,1.0,8.3,85.3667,0.5478,1.8603,Act-1
-0.3295,0,1.3031,8.5655,98.6916,0.661,2.0294,Act-1
2.8487,1,1.3093,8.9799,60.6941,0.6818,2.0527,Act-1
-0.0957,0,1.3056,8.6136,64.1886,0.6764,2.026,Act-1
1.6955,1,1.3152,7.7138,33.1905,0.6448,2.0707,Act-1
0.9219,0,1.2374,8.1343,77.0991,0.6283,2.0403,Act-1
1.7281,1,1.3699,8.1814,65.7944,0.7026,2.0699,Act-1
-0.0067,0,1.2755,8.6012,49.3022,0.6695,2.0332,Act-1
1.3072,1,1.3241,8.1806,49.3022,0.6721,2.0314,Act-1
1.0751,1,1.349,8.2024,49.3022,0.6656,2.0474,Act-1
1.2334,1,1.3529,8.2149,49.3022,0.68,2.046,Act-1
1.347,1,1.3631,8.1716,49.3022,0.7007,2.0477,Act-1
1.8303,1,1.4861,8.0595,49.3022,0.7159,2.119,Act-1
1.1471,1,1.3208,8.1806,49.3022,0.6721,2.03,Act-1
1.2957,1,1.3526,8.1184,49.3022,0.6784,2.0525,Act-1
1.005,1,1.358,8.1713,49.3022,0.6875,2.0477,Act-1
0.7108,1,1.3631,8.2304,49.3022,0.6987,2.0439,Act-1
1.0647,1,1.3311,8.2031,49.3022,0.7402,2.0269,Act-1
3.6138,0,1.0252,7.3519,0.0,0.7225,1.9946,Act1
1.565,0,1.2785,7.6667,36.0215,0.7614,1.9549,Act-1
0.1818,0,1.2982,7.8667,34.7963,0.7622,1.871,Act-1
3.9677,1,1.2907,7.4286,0.0,0.7282,2.0306,Act1
0.5072,0,1.0226,7.2702,0.0,0.7023,1.424,Act-1
1.1552,1,1.3592,8.2355,60.6941,0.7205,2.0923,Act-1
2.5353,1,1.3183,8.0259,60.6941,0.6774,2.1375,Act-1
2.7989,1,1.3638,7.5247,42.6833,0.6721,2.049,Act-1
3.9641,1,1.3571,7.3667,0.0,0.6878,2.066,Act-1
4.468,1,1.3142,7.2778,0.0,0.6823,2.0645,Act-1
5.1692,1,1.3201,7.2733,0.0,0.695,2.0742,Act-1
0.2716,0,1.1552,8.31,136.2746,0.6597,2.0348,Act-1
0.6189,0,1.1531,8.191,93.5913,0.6645,2.0347,Act-1
1.9788,1,1.2805,8.0982,60.6941,0.6815,2.0093,Act-1
0.613,0,1.1993,8.2014,93.5913,0.6784,2.0612,Act-1
0.2657,0,1.2005,8.32,136.2746,0.673,2.0612,Act-1
-0.5146,0,1.175,8.3102,132.1046,0.6918,2.0487,Act-1
4.6169,1,1.2491,7.62,42.6833,0.6869,2.0403,Act-1
3.7704,1,1.3595,7.5,0.0,0.7064,2.0565,Act-1
1.9617,1,1.4774,7.5714,16.7855,0.7708,2.0074,Act-1
2.3897,1,1.4118,7.6056,0.0,0.8549,1.9628,Act-1
