@relation J48_external-comb.arff

@attribute Psi_e_A numeric
@attribute PCR numeric
@attribute GATS8i numeric
@attribute nRCOOH numeric
@attribute nImidazoles numeric
@attribute SaaCH numeric
@attribute CATS2D_07_AP numeric
@attribute SHED_LL numeric
@attribute B05[N-O] numeric
@attribute B06[C-C] numeric
@attribute B07[C-O] numeric
@attribute B08[C-C] numeric
@attribute F03[N-S] numeric
@attribute F09[N-N] numeric
@attribute F09[N-N] numeric
@attribute MACCSFP8 numeric
@attribute MACCSFP37 numeric
@attribute MACCSFP38 numeric
@attribute MACCSFP48 numeric
@attribute MACCSFP49 numeric
@attribute MACCSFP62 numeric
@attribute MACCSFP80 numeric
@attribute MACCSFP84 numeric
@attribute MACCSFP125 numeric
@attribute Actividad {Act1,Act-1}

@data
7.4928,1.5558,1.0442,0,0,18.8404,0,8.9164,0,1,0,1,1,0,0,0,0,1,0,0,0,1,0,1,Act1
7.6061,1.433,1.0465,0,0,16.0392,0,7.6311,0,1,0,1,0,0,0,0,1,0,0,0,0,0,0,1,Act1
7.8305,1.5758,0.7515,0,0,22.1286,0,7.2113,1,1,1,1,3,0,0,0,0,1,0,0,0,1,1,1,Act1
8.1481,1.4919,1.1454,0,0,13.0566,0,11.8477,0,1,1,1,0,0,0,0,0,0,0,0,1,0,0,1,Act1
8.1694,1.4145,1.1669,0,0,16.1908,0,12.7351,1,1,1,1,0,1,1,0,0,0,0,0,0,1,0,1,Act1
7.9405,1.3348,1.0542,0,0,1.6639,0,6.7426,1,1,1,1,0,0,0,0,0,0,0,0,0,0,0,0,Act1
7.7564,1.3323,0.9799,0,0,1.9713,2,5.7132,1,1,1,1,0,0,0,0,0,0,0,0,0,0,1,0,Act1
7.4497,1.4034,1.0652,0,0,14.7798,0,6.5196,0,1,0,1,0,0,0,0,0,0,0,0,0,0,0,1,Act1
8.1136,1.3462,0.9158,0,0,9.467,0,8.8058,1,1,0,1,0,0,0,0,0,1,0,0,0,1,1,1,Act1
7.9306,1.2669,0.9586,0,0,13.0871,0,13.0596,1,1,1,1,0,0,0,0,0,0,0,0,1,0,0,1,Act1
7.5706,1.3971,0.8908,0,0,18.092,0,11.8454,0,1,1,1,0,0,0,0,0,0,0,0,1,1,0,1,Act1
7.5819,1.2877,0.9133,0,0,23.2478,0,13.0986,1,1,1,1,0,0,0,0,0,1,0,0,1,0,0,1,Act1
7.7656,1.2877,0.9025,0,0,20.8749,0,10.8074,1,1,1,1,0,0,0,0,0,1,0,0,1,0,0,1,Act1
7.869,1.2727,0.9047,0,0,13.5402,0,13.3441,1,1,1,1,0,0,0,0,1,0,0,0,1,1,0,1,Act1
8.0076,1.4489,1.1614,0,1,14.1794,0,6.2306,1,1,1,1,0,0,0,0,0,0,0,0,0,0,0,1,Act1
7.3382,1.3426,0.8362,0,0,17.6642,0,6.2761,0,1,0,0,0,0,0,0,0,0,0,0,0,0,0,1,Act1
7.8333,1.3486,1.0438,0,1,5.9764,0,4.2073,0,1,1,1,0,0,0,0,0,0,0,0,0,0,0,1,Act1
7.4066,1.2565,0.9428,0,0,19.1126,0,7.7416,0,1,0,1,0,0,0,0,0,0,0,0,0,1,0,1,Act1
7.8778,1.282,1.0576,0,0,7.3099,0,4.4519,0,1,1,1,0,0,0,0,0,0,0,0,1,0,0,1,Act1
7.419,1.2598,0.9481,0,0,8.8172,0,9.5189,1,1,1,1,0,0,0,0,0,0,0,0,0,0,0,1,Act1
7.6042,1.2708,0.8293,0,0,17.596,0,12.0567,0,1,1,1,0,0,0,0,0,0,0,0,0,0,0,1,Act1
7.6989,1.5174,1.0487,0,0,19.6908,0,10.101,1,1,1,1,0,1,1,0,0,0,0,0,1,1,0,1,Act1
7.4048,1.3427,1.1643,0,0,18.986,0,11.2461,0,1,1,1,0,0,0,0,0,0,0,0,0,0,0,1,Act1
7.8966,1.3308,0.9973,0,0,1.9156,0,6.0746,1,1,1,1,0,0,0,0,0,0,0,0,0,0,0,0,Act-1
7.7895,1.5141,1.1851,0,0,13.9305,0,4.3367,0,1,0,1,0,0,0,0,0,0,0,0,1,1,0,1,Act1
7.58,1.5314,1.2921,0,0,16.0563,0,9.0469,1,1,1,1,1,1,1,0,0,1,0,0,1,1,0,1,Act1
7.881,1.3472,0.7557,0,0,12.3811,0,4.7451,1,1,0,1,1,0,0,0,0,0,0,0,0,0,0,1,Act1
7.8234,1.292,0.8102,0,0,8.7348,0,7.0218,1,1,1,1,0,0,0,0,0,0,0,0,1,0,0,1,Act1
8.0033,1.2084,1.0202,0,0,2.7083,0,10.758,1,1,1,1,1,1,1,0,0,0,0,0,0,0,1,0,Act-1
7.7813,1.3306,1.2961,0,0,13.3562,0,6.7722,0,1,0,1,0,0,0,0,1,0,0,0,0,0,0,1,Act1
7.7056,1.6282,0.9793,0,0,26.7144,0,14.2567,1,1,1,1,0,0,0,0,0,0,0,0,1,1,0,1,Act1
8.0911,1.4089,1.0752,0,0,20.1221,0,10.527,1,1,1,1,0,0,0,0,0,0,0,0,0,0,0,1,Act1
7.8305,1.3878,1.0123,0,0,22.2626,0,12.8556,1,1,1,1,0,0,0,0,0,0,0,0,0,0,0,1,Act1
7.8333,1.4896,0.9768,0,0,21.9524,0,13.8331,1,1,1,1,0,0,0,0,0,0,0,0,1,0,0,1,Act1
7.7742,1.5451,0.9246,0,0,23.0069,0,13.6163,0,1,1,1,0,0,0,0,0,1,0,0,1,0,0,1,Act1
7.714,1.422,0.8449,0,0,20.4771,0,13.3661,1,1,1,1,0,0,0,0,0,0,0,0,0,0,0,1,Act1
7.8073,1.2846,1.0386,0,0,12.1588,0,9.2905,1,1,1,1,0,0,0,0,0,0,0,0,1,1,0,1,Act-1
7.8048,1.2837,1.142,0,0,8.5835,0,9.1914,1,1,1,1,0,0,0,0,0,0,0,0,1,1,0,1,Act1
7.8563,1.313,1.0443,0,0,12.051,0,8.767,0,1,1,1,0,0,0,0,0,0,0,0,1,1,0,1,Act-1
7.6944,1.3088,1.0151,0,0,11.1782,0,13.5821,1,1,1,1,0,0,0,0,0,0,0,0,1,1,0,1,Act1
7.9435,1.3572,0.829,0,0,13.8964,0,6.6751,0,1,1,1,1,0,0,0,0,0,0,0,1,1,0,1,Act1
7.5606,1.4697,0.8056,0,1,16.5542,0,9.6187,0,1,0,1,0,0,0,0,0,1,0,0,1,1,1,1,Act-1
8.1571,1.5623,1.029,0,0,13.3979,0,12.3325,1,1,1,1,0,0,0,0,0,0,0,0,1,0,0,1,Act1
7.7815,1.5227,1.0946,0,0,16.0803,0,11.5835,1,1,1,1,0,0,0,0,0,0,0,0,1,0,0,1,Act1
7.75,1.4425,1.1545,0,0,26.9202,0,12.7396,1,1,1,1,1,0,0,0,0,0,0,0,1,1,0,1,Act1
7.6092,1.5421,0.9534,0,0,15.8518,0,8.2286,0,1,1,1,0,0,0,0,0,1,0,0,1,1,0,1,Act1
7.8016,1.3724,0.9176,0,0,19.5078,0,10.172,1,1,1,1,0,0,0,0,1,0,0,0,1,1,0,1,Act1
7.8667,1.3092,0.8814,0,0,8.4778,0,13.6154,1,1,1,1,1,0,0,0,0,0,0,0,0,1,0,1,Act1
7.6838,1.3725,1.0492,0,0,9.1407,0,11.9249,1,1,1,1,2,0,0,0,0,0,0,0,0,1,1,1,Act1
7.7778,1.3771,0.9939,0,0,8.7027,0,13.2101,1,1,1,1,2,0,0,0,0,0,0,0,0,1,1,1,Act1
7.5255,1.469,1.0366,0,0,12.1913,0,8.9367,0,1,1,1,0,0,0,0,0,0,0,0,0,1,0,1,Act1
7.9077,1.2966,0.8167,0,0,21.7796,0,10.149,1,1,1,1,1,0,0,0,0,0,0,0,0,0,0,1,Act1
7.9891,1.2956,0.8129,0,0,19.247,0,10.1215,1,1,1,1,1,0,0,0,0,0,0,0,0,0,0,1,Act1
7.8003,1.3073,1.0118,0,0,11.0946,0,11.082,1,1,1,1,0,0,0,0,0,0,0,0,1,1,0,1,Act1
7.8704,1.247,0.8035,0,0,11.2767,0,13.2197,1,1,1,1,2,1,1,0,1,0,0,0,1,1,0,1,Act1
7.5893,1.4244,1.019,0,1,15.5873,0,13.3032,0,1,1,1,0,0,0,0,0,1,0,0,0,0,0,1,Act1
7.5517,1.4476,1.0374,0,0,15.9311,0,12.4217,1,1,1,1,3,0,0,0,0,1,0,0,1,0,0,1,Act1
7.7832,1.426,1.1249,0,0,14.5817,0,12.7555,0,1,1,1,0,0,0,0,0,0,0,0,1,1,0,1,Act1
8.0588,1.3044,0.9007,0,0,20.0733,0,9.2627,1,1,1,1,1,0,0,0,0,0,0,0,0,0,0,1,Act1
7.9753,1.3055,1.0262,0,0,19.0769,0,9.6558,1,1,1,1,1,0,0,0,0,0,0,0,0,0,0,1,Act1
7.6687,1.2689,1.0116,0,0,13.5539,0,15.0686,0,1,1,1,0,0,0,0,1,0,0,0,0,0,0,1,Act1
7.8909,1.2689,0.9537,0,0,12.051,0,13.5139,0,1,0,1,0,0,0,0,1,0,0,0,0,0,0,1,Act1
7.9531,1.2974,0.916,0,0,16.89,0,11.9793,1,1,1,1,1,0,0,0,0,0,0,0,0,0,0,1,Act1
8.1,1.3029,0.8831,0,0,18.2232,0,11.6127,1,1,1,1,1,0,0,0,0,0,0,0,0,0,0,1,Act1
7.8833,1.2865,0.8457,0,0,17.9052,0,10.63,1,1,1,1,1,0,0,0,0,0,0,0,0,0,0,1,Act1
7.7411,1.2761,0.9302,0,0,11.1955,0,13.9345,0,1,0,1,0,0,0,0,1,0,0,0,0,0,0,1,Act1
7.7724,1.307,1.0472,0,0,7.6675,0,5.6611,1,1,1,1,0,0,0,0,0,0,0,0,1,0,0,1,Act1
7.7222,1.3166,0.9113,0,0,11.7595,0,7.8464,1,1,1,1,0,0,0,0,0,0,0,0,1,0,0,1,Act1
8.3764,1.4278,1.0004,0,0,15.9428,0,9.4853,0,1,1,1,0,0,0,0,0,0,0,0,1,0,0,1,Act1
8.0104,1.3064,0.778,0,0,8.7435,0,9.2155,0,1,1,1,2,0,0,0,0,0,0,0,0,1,0,0,Act1
7.4405,1.5119,0.7361,0,0,14.7264,0,9.1948,0,1,0,1,0,0,0,0,0,1,0,0,1,1,0,1,Act1
7.6465,1.4453,0.9006,0,0,23.4492,0,12.0815,1,1,1,1,0,0,0,0,0,1,0,0,0,1,0,1,Act-1
7.6847,1.4338,0.9881,0,0,22.5096,0,15.1667,1,1,1,1,0,0,0,0,0,1,0,0,0,1,0,1,Act1
7.6506,1.3983,0.9933,0,0,11.9977,0,9.0517,1,1,1,1,1,0,0,0,0,0,0,0,0,0,0,1,Act1
7.9815,1.3778,0.8813,0,0,10.2549,0,5.5516,1,1,1,1,0,0,0,0,0,0,0,0,0,1,0,1,Act1
7.9902,1.4088,0.9605,0,1,17.1528,0,11.1982,1,1,1,1,2,0,0,0,0,1,0,0,1,0,0,1,Act1
7.6004,1.3841,0.9623,0,0,11.7522,0,11.2123,1,1,1,1,1,0,0,0,0,0,0,0,0,0,0,1,Act1
7.8704,1.3851,0.9254,0,0,17.8485,0,11.2425,0,1,1,1,1,0,0,0,0,0,0,0,1,1,0,1,Act1
7.7745,1.3796,0.9461,0,0,20.651,0,11.9512,0,1,1,1,1,0,0,0,0,0,0,0,1,1,0,1,Act1
7.7525,1.2856,0.9694,0,0,17.5409,0,14.6633,1,1,1,1,0,0,0,0,1,0,0,0,1,1,0,1,Act1
7.8125,1.3845,1.0069,0,0,20.1464,0,11.5725,1,1,1,1,0,0,0,0,0,0,0,0,1,1,0,1,Act1
7.5139,1.47,1.0986,0,0,14.0724,0,8.0385,0,1,1,1,0,0,0,0,0,0,0,0,0,1,0,1,Act1
7.4493,1.4738,1.0528,0,0,14.575,0,8.1971,0,1,1,1,0,0,0,0,0,0,0,0,0,1,0,1,Act1
7.8347,1.4581,0.9811,0,0,24.8616,0,14.018,1,1,1,1,1,0,0,0,0,0,0,0,1,0,0,1,Act1
7.9905,1.2577,0.9284,0,0,16.0637,0,13.0859,1,1,1,1,0,0,0,0,1,0,0,0,1,1,0,1,Act1
7.8981,1.4771,1.015,0,0,21.2101,0,12.829,1,1,1,1,1,0,0,0,0,1,0,0,1,1,0,1,Act1
7.5972,1.4122,0.8782,0,0,10.0963,0,10.0017,1,1,1,1,1,0,0,0,0,0,0,0,0,0,0,1,Act1
7.569,1.475,0.8863,0,0,20.3011,0,14.0002,1,1,1,1,1,0,0,0,0,0,0,0,0,0,0,1,Act1
7.6867,1.4158,1.0307,0,0,17.3394,0,10.3071,1,1,1,1,1,0,0,0,0,0,0,0,0,0,0,1,Act1
7.7097,1.4473,1.1162,0,0,13.8011,0,10.6563,1,1,1,1,0,1,1,0,0,0,0,0,1,1,1,1,Act1
7.7692,1.5104,0.757,0,0,13.0866,0,9.7147,0,1,1,1,0,0,0,0,0,0,0,0,1,0,0,1,Act1
7.571,1.3937,1.0511,0,1,13.2817,0,12.4413,0,1,1,1,0,0,0,0,0,1,0,0,0,1,0,1,Act1
7.7598,1.5062,1.0519,0,0,23.7448,0,13.8761,1,1,1,1,2,0,0,0,0,1,0,0,1,1,0,1,Act1
7.9678,1.3124,0.7581,0,0,7.3467,0,8.8368,1,1,1,1,0,0,0,0,0,0,0,0,0,1,0,0,Act1
8.2569,1.4239,0.8182,0,0,15.2981,0,10.3028,1,1,1,1,0,0,0,0,0,0,0,0,0,1,0,1,Act1
8.4772,1.4409,1.0578,0,0,11.7025,0,10.4893,1,1,1,1,0,0,0,0,0,0,0,0,0,1,0,1,Act1
8.0962,1.4018,1.0479,0,0,8.1762,0,12.1351,1,1,1,1,0,0,0,0,0,0,0,0,0,1,0,1,Act1
7.7567,1.3012,0.9923,0,0,9.8736,0,9.5445,1,1,1,1,0,0,0,0,1,0,0,0,1,1,0,1,Act1
7.7882,1.3061,0.9608,0,0,9.8318,0,8.6535,1,1,1,1,0,0,0,0,1,0,0,0,1,1,0,1,Act1
7.753,1.3724,0.9609,0,0,20.0511,0,10.172,1,1,1,1,0,0,0,0,1,0,0,0,1,1,0,1,Act1
8.0158,1.4153,0.9992,0,0,18.0105,0,9.1576,1,1,1,1,0,0,0,0,0,0,0,0,0,1,0,1,Act1
7.7333,1.37,0.9364,0,1,12.834,0,12.7625,1,1,1,1,0,0,0,0,0,1,0,0,0,1,0,1,Act1
7.6131,1.3744,1.0868,0,0,15.7712,0,15.8144,1,1,1,1,0,0,0,0,0,0,0,0,1,0,0,1,Act1
7.9409,1.485,1.0303,0,0,20.3037,0,15.2073,1,1,1,1,1,1,1,0,0,0,0,0,0,0,0,1,Act1
7.8189,1.4149,1.2731,0,0,14.7799,0,14.1574,1,1,1,1,2,0,0,0,0,0,0,0,1,1,0,1,Act-1
7.5741,1.3945,0.7075,0,0,16.757,0,11.5261,1,1,1,1,1,0,0,0,0,1,0,0,1,1,0,1,Act1
8.1233,1.2972,1.07,0,0,6.5862,0,5.9528,1,1,1,1,2,0,0,0,0,0,0,0,0,1,0,1,Act1
7.7559,1.2584,1.1735,0,0,13.0724,0,16.0677,1,1,1,1,0,0,0,0,1,0,0,0,0,0,0,1,Act1
7.9839,1.4045,0.859,0,0,14.9244,0,9.7485,1,1,1,1,0,0,0,0,0,0,0,0,0,0,0,1,Act1
7.5677,1.4869,1.1003,0,1,15.9157,0,15.6404,0,1,1,1,0,0,0,0,0,0,0,0,1,1,0,1,Act1
8,1.431,0.7664,0,0,11.2833,0,8.3204,1,1,1,1,0,0,0,0,0,0,0,0,1,1,0,1,Act1
7.6667,1.4024,1.0484,0,0,13.8665,0,13.2863,1,1,1,1,0,0,0,0,0,0,0,0,0,1,0,1,Act1
8.0794,1.4463,0.7549,0,0,15.8893,0,10.4009,1,1,1,1,0,0,0,0,1,0,0,0,1,1,0,1,Act1
7.9083,1.3973,0.8536,0,0,16.5323,0,12.4756,0,1,0,1,0,0,0,0,0,0,0,0,1,0,0,1,Act1
8.1478,1.3276,0.9927,0,0,3.0526,0,8.6835,0,1,1,1,2,0,0,0,0,0,0,0,0,1,0,0,Act1
8.2767,1.331,0.7061,0,0,5.6608,0,8.1288,0,1,1,1,2,0,0,0,0,0,0,0,0,1,0,0,Act1
7.7963,1.3669,1.1198,0,0,8.9596,0,14.5921,1,1,1,1,2,0,0,0,0,1,0,0,0,1,0,1,Act1
7.8819,1.3523,0.9027,0,0,18.9902,0,13.0506,0,1,1,1,1,0,0,0,0,0,0,0,1,1,0,1,Act1
7.8976,1.3582,0.9306,0,0,18.9675,0,12.7654,0,1,1,1,1,0,0,0,0,0,0,0,1,1,0,1,Act1
7.7024,1.426,0.8196,0,0,12.0658,0,10.0037,1,1,1,1,0,0,0,0,0,0,0,0,1,1,0,1,Act1
7.7222,1.3907,1.0322,0,0,17.8666,0,17.3309,1,1,1,1,0,1,1,0,0,0,0,0,1,1,0,1,Act1
7.7667,1.4594,0.8948,0,0,19.1124,0,10.7859,1,1,1,1,0,0,0,0,0,0,0,0,0,1,0,1,Act1
7.7323,1.4803,0.9102,0,0,21.6519,0,11.9192,1,1,1,1,0,0,0,0,0,0,0,0,0,1,0,1,Act1
7.7549,1.4037,1.0888,0,0,15.5743,0,17.47,1,1,1,1,0,1,1,0,0,0,0,0,1,1,0,1,Act1
7.899,1.4005,1.0003,0,0,14.2655,0,17.47,1,1,1,1,0,1,1,0,0,0,0,0,1,1,0,1,Act1
7.7731,1.396,1.0371,0,0,13.5055,0,16.5547,1,1,1,1,0,1,1,0,0,0,0,0,1,1,0,1,Act1
7.7731,1.4024,1.0959,0,0,13.5193,0,17.4808,1,1,1,1,0,1,1,0,0,0,0,0,1,1,0,1,Act1
7.7333,1.3953,1.1019,0,0,15.6683,0,18.2944,1,1,1,1,0,1,1,0,0,0,0,0,1,1,0,1,Act1
7.5811,1.4569,0.945,0,0,16.3034,0,16.6927,1,1,1,1,0,0,0,0,0,1,0,0,1,1,0,1,Act1
7.529,1.5621,0.9709,0,0,16.3885,0,8.2551,0,1,0,1,0,0,0,0,0,1,0,0,0,1,0,1,Act1
7.8012,1.4321,1.0376,0,0,23.4984,0,14.5725,1,1,1,1,0,0,0,0,0,1,0,0,1,1,0,1,Act1
7.7583,1.4246,1.0658,0,0,23.8617,0,14.8554,1,1,1,1,0,0,0,0,0,1,0,0,1,1,0,1,Act1
7.7265,1.4259,0.9565,0,0,24.5333,0,15.3311,1,1,1,1,0,0,0,0,0,1,0,0,1,1,0,1,Act1
7.7348,1.4617,1.1893,0,0,7.0915,0,8.3199,1,1,1,1,0,0,0,0,0,1,0,0,0,1,0,1,Act1
7.7029,1.4505,0.9671,0,0,7.26,0,7.8339,1,1,1,1,0,0,0,0,0,1,0,0,0,1,0,1,Act1
7.6768,1.4069,0.9428,0,0,17.7142,0,16.4625,1,1,1,1,0,2,2,0,0,0,0,0,1,1,0,1,Act1
7.4646,1.4783,1.2321,0,0,24.9744,0,15.9683,1,1,1,1,0,0,0,0,0,0,0,0,1,1,0,1,Act1
7.8724,1.3571,1.1814,0,0,13.6438,0,14.2939,0,1,1,1,0,0,0,0,0,0,0,0,1,0,0,1,Act1
7.8185,1.4041,0.9564,0,0,10.9025,0,10.8358,0,1,1,1,0,0,0,0,0,0,0,0,1,0,0,1,Act1
8.2839,1.5157,0.6548,0,0,11.6575,0,11.1935,1,1,1,1,0,0,0,0,0,1,0,0,1,1,0,1,Act1
7.87,1.4115,0.9033,0,0,16.268,0,10.2522,0,1,1,1,4,0,0,0,0,1,0,0,0,1,1,1,Act1
7.7917,1.386,0.8665,0,0,10.9665,0,8.9919,1,1,1,1,0,0,0,0,0,1,0,0,1,1,0,1,Act1
7.8426,1.4133,0.8607,0,0,15.5959,0,11.9767,0,1,1,1,0,0,0,0,0,0,0,0,1,0,0,1,Act1
7.8488,1.4178,0.8987,0,0,13.5685,0,10.4955,0,1,1,1,0,0,0,0,0,0,0,0,1,0,0,1,Act1
7.8125,1.4142,0.915,0,0,15.7064,0,13.7661,0,1,1,1,0,0,0,0,0,0,0,0,1,0,0,1,Act1
7.7284,1.3766,1.0394,0,0,19.0025,0,11.638,0,1,1,1,1,0,0,0,0,0,0,0,0,0,0,1,Act1
7.7333,1.3668,1.1964,0,0,18.5272,0,12.5208,0,1,1,1,1,0,0,0,0,0,0,0,0,0,0,1,Act1
7.6806,1.3668,0.9016,0,0,19.2513,0,14.2361,0,1,1,1,1,0,0,0,0,0,0,0,0,0,0,1,Act1
7.3567,1.2571,0.8624,0,0,6.4276,0,6.3053,0,1,0,1,1,1,1,0,0,0,0,0,1,1,0,1,Act1
7.4349,1.3713,0.9096,0,0,18.9112,0,14.4922,0,1,0,1,0,1,1,0,0,0,0,0,1,1,0,1,Act1
7.6863,1.3571,0.977,0,0,17.5208,0,18.1063,0,1,1,1,0,0,0,0,0,0,0,0,0,1,0,1,Act1
7.9779,1.3619,0.8271,0,0,6.1874,0,13.8284,1,1,1,1,1,1,1,0,0,0,0,0,0,1,0,1,Act1
7.6667,1.3613,0.839,0,0,17.5002,0,15.7006,1,1,1,1,0,0,0,0,0,1,0,0,1,1,0,1,Act1
7.8678,1.4555,1.2439,0,0,14.3708,0,14.1636,1,1,1,1,2,0,0,0,0,0,0,0,0,1,0,1,Act1
7.6369,1.4471,0.827,0,0,27.4561,0,10.3331,1,1,1,1,0,0,0,0,0,1,0,0,1,1,0,1,Act1
7.6833,1.2646,1.0397,0,0,6.5245,0,13.8126,1,1,1,1,0,1,1,0,0,0,0,0,1,0,0,1,Act1
7.9508,1.2938,1.1161,0,0,12.4703,0,2.8717,1,1,1,1,2,1,1,0,0,0,0,0,1,1,1,1,Act-1
8.1997,1.2925,0.8117,0,0,9.8932,0,7.3837,1,1,1,1,1,0,0,0,0,0,0,0,0,0,0,1,Act1
7.9705,1.3274,0.9707,0,0,11.8078,0,15.3869,1,1,1,1,0,1,1,0,0,0,0,0,0,0,0,1,Act1
8.1111,1.5537,1.0016,0,1,15.5405,0,10.1159,0,1,1,1,0,0,0,0,0,0,0,0,1,1,0,1,Act1
8.0188,1.2904,0.9308,0,0,20.2847,0,11.7097,0,1,1,1,1,0,0,0,0,0,0,0,0,0,0,1,Act1
7.8472,1.3129,1.0916,0,0,10.2455,0,8.7024,1,1,1,1,0,0,0,0,0,0,0,0,1,1,0,1,Act-1
7.6827,1.3996,1.3972,0,0,7.7166,0,10.9088,0,1,1,1,1,0,0,0,0,1,0,0,1,1,0,1,Act1
7.72,1.2868,0.6317,0,0,14.9935,0,10.7545,0,1,1,1,0,0,0,0,0,0,0,0,1,0,0,1,Act1
7.75,1.2722,0.8925,0,0,12.2098,0,14.7654,1,1,1,1,0,1,1,0,0,0,0,0,1,1,0,1,Act-1
7.9983,1.2857,0.9116,0,0,9.2375,0,15.7594,1,1,1,1,0,0,0,0,0,1,0,0,1,0,0,1,Act-1
7.7892,1.4139,0.9351,0,0,20.2415,0,12.8332,0,1,1,1,1,0,0,0,0,0,0,0,1,1,0,1,Act1
7.8418,1.3154,1.0783,0,0,14.8599,0,11.0441,0,1,1,1,1,0,0,0,1,0,0,0,1,1,0,1,Act1
7.8556,1.3164,1.165,0,0,12.7319,0,11.0043,1,1,1,1,1,0,0,0,1,0,0,0,1,1,0,1,Act1
7.8137,1.5745,0.9897,0,0,13.4165,0,13.675,1,1,1,1,2,2,2,0,0,1,0,0,0,1,0,1,Act1
7.7778,1.5644,1.0109,0,0,13.5333,0,13.5914,1,1,1,1,2,2,2,0,0,1,0,0,0,1,0,1,Act1
7.6111,1.5737,0.9385,0,0,19.0365,0,11.0797,0,1,0,1,0,0,0,0,0,1,0,0,1,1,0,1,Act1
7.6197,1.5163,0.7297,0,1,14.7375,0,8.9942,0,1,0,1,0,0,0,0,0,1,0,0,1,1,0,1,Act1
7.7097,1.4254,1.074,0,0,15.6539,0,12.6924,1,1,1,1,1,0,0,0,0,1,0,0,1,1,0,1,Act1
8.0221,1.2872,0.971,0,0,9.1927,0,11.7785,1,1,1,1,0,1,1,0,0,0,0,0,0,0,0,1,Act1
7.7366,1.3121,1.03,0,0,13.0952,0,10.8471,0,1,1,1,0,0,0,0,0,0,0,0,1,1,0,1,Act1
7.9453,1.3082,0.8969,0,0,18.5443,0,10.3365,1,1,1,1,0,0,0,0,0,0,0,0,0,0,0,1,Act1
7.7654,1.3979,1.0956,0,0,8.9298,0,11.3945,1,1,1,1,2,1,1,0,0,0,0,0,0,1,1,1,Act1
7.7429,1.2861,1.1096,0,0,10.9654,0,8.666,1,1,1,1,0,0,0,0,0,0,0,0,1,1,0,1,Act1
8.0086,1.4128,0.927,0,0,10.8902,0,10.9306,1,1,1,1,0,0,0,0,0,0,0,0,0,0,0,1,Act-1
7.79,1.2184,0.9359,0,0,24.4888,0,17.9495,1,1,1,1,0,0,0,0,1,0,0,0,0,0,0,1,Act1
7.8574,1.2225,0.5172,0,0,7.3603,0,6.3195,0,1,0,0,0,0,0,0,0,0,0,0,1,0,1,0,Act1
7.7599,1.5005,0.9008,0,0,23.9169,0,15.4966,1,1,1,1,0,2,2,0,0,1,0,0,1,1,0,1,Act-1
7.4541,1.385,0.9062,0,0,14.4562,0,7.1934,0,1,0,1,1,0,0,0,0,1,0,0,1,0,0,1,Act1
7.6026,1.4291,1.0788,0,0,16.2704,0,7.9878,1,1,1,1,0,1,1,0,0,0,0,0,0,0,0,1,Act1
7.5072,1.5173,0.9289,0,0,15.7677,0,13.7339,0,1,0,1,0,1,1,0,0,0,0,0,0,1,0,1,Act1
7.6379,1.4616,0.9628,0,0,11.4886,0,9.3852,1,1,1,1,0,0,0,0,0,0,0,0,1,0,0,1,Act1
7.6543,1.4309,0.9851,0,0,0,0,16.8642,0,1,1,1,0,0,0,0,0,0,0,0,0,0,0,0,Act1
7.4977,1.1932,1.1672,0,0,1.6412,0,9.8678,1,1,1,1,0,0,0,0,0,0,0,0,0,0,0,0,Act1
7.5234,1.3262,0.9619,0,0,16.0256,0,7.3108,0,1,0,1,0,0,0,0,0,0,0,0,0,0,0,1,Act1
8.0645,1.1002,1.189,0,0,4.7866,0,7.7085,0,1,1,1,0,0,0,0,0,0,0,0,1,0,0,0,Act1
7.85,1.3988,1.0707,0,0,10.8403,0,8.9676,0,1,1,1,0,0,0,0,0,0,0,0,1,0,0,1,Act1
7.7444,1.3721,0.9037,0,0,12.6285,0,11.9447,0,1,1,1,0,0,0,0,0,0,0,0,1,1,0,1,Act1
7.9195,1.3829,0.9559,0,0,4.1972,0,13.165,1,1,1,1,0,0,0,0,0,0,0,0,0,1,0,1,Act1
7.1914,1.1543,0.9248,0,0,6.6648,0,11.8127,0,1,1,1,0,0,0,0,0,0,0,0,1,0,0,0,Act1
7.934,1.6066,1.077,0,0,22.4598,0,15.2572,1,1,1,1,1,3,3,0,0,1,0,0,1,1,0,1,Act1
7.7139,1.4336,0.935,0,0,9.9685,0,11.7832,1,1,1,1,0,1,1,0,0,1,0,0,0,1,0,1,Act1
7.8148,1.4378,1.2058,0,1,5.2504,0,8.3199,1,1,1,1,1,0,0,0,0,1,0,0,0,1,0,1,Act1
7.4063,1.2627,0.8782,0,0,17.3087,0,15.2401,0,1,1,1,1,0,0,0,0,0,0,0,1,0,0,1,Act1
7.3988,1.5696,0.9409,0,0,25.4348,0,7.4334,0,1,0,1,0,1,1,0,0,0,0,0,1,1,0,1,Act-1
7.8715,1.3561,0.5301,0,0,9.1136,0,6.3053,0,1,0,0,1,0,0,0,0,0,0,0,0,1,0,1,Act1
8.2698,1.4865,1.213,0,0,12.1733,0,8.3093,0,1,1,1,0,0,0,0,0,1,0,0,1,0,0,1,Act1
8.0159,1.0329,1.0097,0,0,0,0,11.9089,1,1,1,1,0,2,2,0,0,0,0,0,0,0,0,0,Act1
7.413,1.3424,0.9797,0,0,15.014,0,6.425,0,1,1,1,1,0,0,0,0,0,0,0,0,1,0,1,Act1
8.2354,1.3195,1.2739,0,0,13.8872,0,6.2705,1,1,1,1,1,1,1,0,0,0,1,0,0,1,0,1,Act1
7.3922,1.0692,0.9735,0,0,0,0,9.5189,1,1,1,1,0,0,0,0,0,0,0,0,0,0,0,0,Act1
8.0119,1.3299,0.0825,0,0,6.9466,0,2.8717,0,0,0,0,0,0,0,0,0,0,0,0,1,0,1,0,Act-1
7.9405,1.3299,0.2385,0,0,9.5923,0,4.1689,0,1,1,0,0,0,0,0,0,0,0,0,1,0,1,0,Act1
7.8431,1.3082,1.1849,0,0,7.9096,1,3.6914,0,1,1,1,0,0,0,0,0,0,0,0,1,0,1,0,Act1
7.598,1.6161,0.8815,0,1,20.9778,0,10.6051,0,1,1,1,0,1,1,0,0,0,0,0,1,1,0,1,Act1
8.0167,1.2096,0.9987,0,0,3.4378,0,7.1922,1,1,1,1,0,0,0,0,0,1,0,0,0,1,0,0,Act-1
7.5202,1.41,0.9915,0,0,14.3431,0,6.8378,0,1,0,1,0,0,0,0,0,0,0,0,0,0,0,1,Act1
7.8953,1.453,0.8843,0,0,14.108,0,9.1026,0,1,1,1,0,0,0,0,0,0,0,0,0,0,0,1,Act-1
7.8623,1.543,0.9138,0,0,10.0763,0,6.1288,0,1,0,1,2,0,0,0,0,0,0,0,1,1,0,1,Act1
7.64,1.6153,1.1208,0,0,13.6213,0,7.5004,1,1,0,1,2,0,0,0,0,0,0,0,1,1,0,1,Act1
7.3,1.2301,0.9303,0,0,17.4417,0,6.5114,0,1,0,1,1,0,0,0,0,0,0,0,0,1,0,1,Act1
7.4545,1.4594,1.0726,0,0,19.0334,0,11.5503,0,1,0,1,0,0,0,0,0,0,0,0,1,1,0,1,Act1
7.9505,1.3446,0.9804,0,0,16.1041,0,13.757,1,1,1,1,0,0,0,0,0,0,0,0,1,0,0,1,Act1
7.6071,1.3917,0.774,0,0,15.6926,0,8.9941,1,1,1,1,0,1,1,0,0,0,0,0,1,1,0,1,Act-1
7.7533,1.3266,1.0492,0,0,9.4609,2,7.0218,1,1,1,1,0,0,0,0,0,0,0,0,1,1,1,1,Act1
7.6358,1.2854,1.1288,0,0,7.9719,0,11.5123,1,1,1,1,0,0,0,0,0,0,0,0,1,0,0,1,Act1
7.7667,1.293,1.3155,1,0,7.8674,0,9.6759,1,1,1,1,0,0,0,0,0,0,0,0,1,0,0,1,Act1
7.5652,1.2895,1.0326,0,0,13.7787,0,6.5427,0,1,0,1,0,0,0,0,0,1,0,0,1,1,1,1,Act-1
7.4907,1.3494,1.0407,0,0,18.7235,0,8.559,0,1,0,1,0,0,0,0,0,0,0,0,0,0,0,1,Act1
7.6857,1.4497,0.9839,0,1,13.3332,0,13.5918,1,1,1,1,1,4,4,0,0,0,0,0,1,1,0,1,Act-1
8.3067,1.3339,1.099,0,0,7.0544,0,8.9631,0,1,1,1,0,0,0,0,0,0,0,0,0,0,0,1,Act1
8.2645,1.3325,1.0594,0,0,8.5904,0,9.0051,0,1,1,1,0,0,0,0,0,0,0,0,0,0,0,1,Act1
8.3563,1.3325,0.9869,0,0,8.0474,0,9.1206,0,1,1,1,0,0,0,0,0,0,0,0,0,0,0,1,Act1
8.143,1.4495,0.8931,0,1,7.9775,0,7.2396,1,1,1,1,0,0,0,0,0,0,0,0,0,1,0,1,Act1
7.5977,1.3947,0.9521,0,0,15.6984,0,11.8057,1,1,1,1,0,1,1,0,0,0,0,0,1,1,0,1,Act1
7.5679,1.4391,0.8528,0,0,20.1797,0,12.4852,0,1,1,1,0,0,0,0,0,0,0,0,1,0,0,1,Act1
7.7794,1.5068,0.9203,0,0,16.5856,0,13.8114,1,1,1,1,0,0,0,0,1,0,0,0,1,1,0,1,Act1
7.4948,1.3602,0.8456,0,0,11.9102,0,15.0609,0,1,1,1,2,1,1,0,0,0,0,0,1,1,0,1,Act1
7.6406,1.4199,1.0503,0,0,14.9542,0,10.657,0,1,1,1,0,0,0,0,0,1,0,0,1,1,0,1,Act1
7.8409,1.3506,1.013,0,0,6.6846,0,3.5961,1,1,1,1,0,0,0,0,0,0,0,0,1,0,0,1,Act1
8.2044,1.4452,0.8489,0,0,8.2335,0,10.4484,1,1,0,1,1,0,0,0,0,0,0,0,1,1,0,1,Act1
7.6543,1.421,0.8877,0,0,15.832,0,13.604,0,1,1,1,0,0,0,0,0,0,0,0,0,0,0,1,Act1
7.7849,1.4257,0.9582,0,0,21.6414,0,15.204,0,1,1,1,0,0,0,0,0,0,0,0,0,0,0,1,Act1
7.7586,1.4343,1.0949,0,1,12.9406,0,11.3585,1,1,1,1,0,0,0,0,0,1,0,0,0,1,0,1,Act1
7.922,1.5471,0.9392,0,0,24.4651,0,15.0707,0,1,1,1,0,0,0,0,0,0,0,0,1,1,0,1,Act1
8.0074,1.6483,1.047,0,0,28.07,0,13.0434,0,1,0,1,0,0,0,0,0,1,0,0,1,1,0,1,Act1
7.5,1.649,0.9348,0,0,32.5844,0,13.1153,0,1,0,1,0,0,0,0,0,1,0,0,1,1,0,1,Act1
7.4798,1.6492,0.9649,0,0,32.8479,0,13.5727,0,1,0,1,0,0,0,0,0,1,0,0,1,1,0,1,Act1
7.6935,1.649,0.9554,0,0,30.2132,0,13.0994,0,1,0,1,0,0,0,0,0,1,0,0,1,1,0,1,Act1
8.5735,1.4834,0.8642,0,0,14.0602,0,12.6589,1,1,1,1,0,0,0,0,0,0,0,0,0,1,0,1,Act1
8.5735,1.4834,0.8553,0,0,14.2719,0,12.7076,1,1,1,1,0,0,0,0,0,1,0,0,0,1,0,1,Act1
7.4635,1.5233,1.0493,0,0,24.7707,0,13.6511,0,1,0,1,0,0,0,0,0,1,0,0,1,1,0,1,Act1
7.5469,1.6495,0.9121,0,0,31.9916,0,13.0994,0,1,1,1,0,0,0,0,0,1,0,0,1,1,0,1,Act1
7.729,1.3812,0.8804,0,0,14.8046,0,14.0809,0,1,1,1,1,0,0,0,1,1,0,0,0,1,0,1,Act1
7.6667,1.5239,1.0772,0,0,21.9836,0,11.5278,0,1,1,1,0,0,0,0,0,1,0,0,1,0,0,1,Act1
7.4706,1.647,0.9763,0,0,31.2562,0,14.8652,0,1,0,1,0,0,0,0,0,1,0,0,1,1,0,1,Act1
7.5345,1.5385,0.8974,0,0,21.9362,0,10.637,0,1,0,1,0,1,1,0,0,1,0,0,1,1,0,1,Act1
8.0719,1.3826,0.8743,0,0,5.125,0,3.7044,0,1,0,1,0,0,0,0,0,0,0,0,1,1,0,1,Act1
7.9212,1.2426,1.0674,0,0,17.2027,0,12.1848,1,1,1,1,0,0,0,0,0,0,0,0,0,0,1,1,Act1
8.1861,1.3785,0.9299,0,0,8.3,0,11.1358,1,1,1,1,0,0,0,0,0,0,0,0,1,0,0,1,Act1
7.9949,1.4583,1.127,0,0,14.3277,0,14.9221,1,1,1,1,0,0,0,0,0,1,0,0,1,1,1,1,Act1
7.9981,1.6052,1.3959,0,0,22.9079,0,16.0916,1,1,1,1,0,1,1,0,0,0,0,0,1,1,0,1,Act1
7.9361,1.5268,0.8286,0,0,19.1025,0,13.8476,1,1,1,1,1,0,0,0,0,0,0,0,0,0,0,1,Act1
6.942,1.3307,1.1133,0,0,18.0078,0,7.1505,0,1,0,1,0,0,0,0,0,0,0,0,0,0,0,1,Act1
7.94,1.3117,0.9161,0,0,9.8459,0,4.5176,0,1,1,1,2,1,1,0,1,0,0,0,1,1,1,1,Act-1
7.7267,1.4541,0.8448,0,1,13.7644,0,9.6625,0,1,1,1,0,0,0,0,0,1,0,0,1,0,0,1,Act1
7.9074,1.303,0.9983,0,0,4.8848,0,6,1,1,1,1,0,2,2,0,0,1,0,0,1,1,1,0,Act-1
8.0714,1.5425,0.9663,0,0,16.3656,0,12.653,1,1,1,1,0,1,1,0,0,0,0,0,1,1,0,1,Act1
7.8464,1.5503,0.864,0,0,17.5542,0,9.1213,1,1,1,1,1,0,0,0,0,1,0,0,0,0,0,1,Act1
7.8173,1.2461,1.0766,0,0,8.9453,0,8.6913,1,1,1,1,1,0,0,0,0,0,0,0,0,0,0,1,Act1
7.7018,1.5141,1.1152,0,0,14.3409,0,5.0107,0,1,0,1,0,0,0,0,0,0,0,0,1,1,0,1,Act1
7.5758,1.3987,0,0,0,13.8558,0,3.3889,0,0,0,0,0,0,0,0,0,0,0,0,1,1,0,1,Act1
7.5208,1.4409,0.8544,0,0,15.9108,0,11.2089,0,1,0,1,0,0,0,0,0,1,0,0,1,1,0,1,Act1
8.0679,1.3961,1.0114,0,0,16.0489,0,11.2517,1,1,1,1,0,0,0,0,0,0,0,0,0,0,0,1,Act1
8.1422,1.5808,1.0167,0,0,15.8612,0,12.5103,1,1,1,1,0,2,2,0,0,1,0,0,1,1,0,1,Act-1
7.4873,1.3691,1.2043,0,0,21.0591,0,7.4963,0,1,0,1,0,0,0,0,0,0,0,0,1,1,0,1,Act-1
8.0278,1.476,1.3222,0,0,16.568,0,9.327,1,1,1,1,0,1,1,0,1,0,0,0,1,1,0,1,Act1
7.5833,1.3839,0.9622,0,0,7.9755,1,13.7857,0,1,1,1,0,3,3,0,0,1,0,0,1,1,1,1,Act1
7.7609,1.4517,0.9573,0,0,14.5278,0,9.1584,1,1,1,1,0,1,1,0,0,1,0,0,1,1,0,1,Act1
7.5,1.5474,0.9544,0,0,28.6328,0,11.4407,0,1,0,1,0,0,0,0,0,1,0,0,0,1,0,1,Act1
8.0952,1.3805,0.9809,0,0,9.9896,0,7.5004,1,1,1,1,0,0,0,0,0,1,0,0,1,1,0,1,Act1
8.0685,1.2766,1.0712,0,0,9.3448,0,8.4013,0,1,0,1,0,0,0,0,0,1,0,0,0,1,0,1,Act1
8.1902,1.599,0.861,0,0,14.1308,0,12.0433,1,1,1,1,2,0,0,0,1,0,0,0,1,1,0,1,Act-1
8.4688,1.5175,1.1021,0,0,13.7044,0,10.7859,0,1,1,1,0,0,0,0,0,1,0,0,0,1,0,1,Act1
7.6548,1.5677,0.9438,0,0,22.5664,0,10.283,1,1,1,1,0,0,0,0,0,1,0,0,0,1,0,1,Act1
8.1065,1.5245,1.017,0,0,24.9723,0,12.3738,1,1,1,1,0,0,0,0,0,0,0,0,1,0,0,1,Act1
7.5859,1.4115,0.9721,0,0,17.472,0,15.3407,1,1,1,1,0,0,0,0,0,0,0,0,0,0,0,1,Act1
7.6085,1.3311,0.9247,0,0,11.016,0,3.4973,0,1,0,1,0,0,0,0,0,1,0,0,1,0,0,1,Act1
8.112,1.5867,1.3677,1,0,16.5303,0,15.9207,0,1,1,1,0,0,0,0,0,0,0,0,1,0,0,1,Act1
8.0768,1.4007,1.0882,0,0,12.5394,0,12.3367,1,1,1,1,2,0,0,0,0,0,0,0,0,1,0,1,Act1
8.391,1.2952,1.185,0,0,11.6393,0,7.4509,1,1,1,1,0,0,0,1,0,0,0,1,0,0,0,1,Act1
7.6076,1.4091,0.8575,0,0,16.0355,0,13.0915,0,1,1,1,0,0,0,0,0,1,0,0,1,1,0,1,Act1
7.904,1.4623,0.7335,0,1,10.1206,0,3.5541,0,1,1,1,0,0,0,0,0,1,0,0,1,1,0,1,Act1
7.6905,1.4774,0.5775,0,1,10.6476,0,3,0,1,0,0,0,0,0,0,0,1,0,0,1,1,0,1,Act-1
7.5269,1.5868,0.9271,0,1,22.1173,0,7.4182,0,1,1,1,0,1,1,0,0,1,0,0,1,1,0,1,Act1
7.7273,1.1228,1.0638,0,0,13.6678,0,19.114,1,1,1,1,1,0,0,0,0,0,0,0,0,0,0,1,Act1
8.0806,1.5046,0.9328,0,0,14.2416,0,15.5171,1,1,1,1,0,0,0,0,0,1,1,0,0,1,0,1,Act-1
7.5049,1.3006,0.9843,0,0,10.4284,0,13.699,0,1,1,1,0,1,1,0,0,1,0,0,1,1,0,1,Act-1
7.5734,1.1527,0.8155,0,0,5.8561,0,8.7443,0,1,1,1,0,1,1,0,1,0,0,0,1,0,0,0,Act1
7.7682,1.42,1.0357,0,0,14.9517,0,11.1023,1,1,1,1,0,0,0,0,0,0,0,0,1,1,0,1,Act1
8.45,1.3536,1.1377,0,1,6.2641,0,3.7798,1,1,1,1,0,0,0,0,1,0,0,0,1,1,0,1,Act1
8.0874,1.4038,1.0586,0,0,13.4545,0,14.9858,0,1,1,1,0,2,2,0,0,1,0,0,0,1,0,1,Act1
7.4667,1.2575,1.0397,0,0,17.012,0,14.5907,1,1,1,1,1,0,0,0,0,0,0,0,0,1,0,1,Act1
8.2613,1.5219,0.6088,0,0,12.1632,0,14.0986,1,1,1,1,0,0,0,0,1,1,0,0,0,1,0,1,Act1
8.0028,1.5375,0.8819,0,1,19.6029,0,11.3502,1,1,1,1,0,0,0,0,0,1,0,0,1,0,0,1,Act1
7.6867,1.5562,1.2157,0,0,23.0705,0,11.4726,0,1,0,1,0,2,2,0,0,1,0,0,1,0,0,1,Act1
7.942,1.4816,0.9674,0,1,13.7461,0,7.09,1,1,1,1,0,0,0,0,0,0,0,0,1,1,0,1,Act-1
7.5469,1.3993,0.749,0,1,11.3701,0,11.9814,1,1,1,1,0,0,0,0,0,1,0,0,0,1,0,1,Act1
7.5153,1.4259,0.9421,0,0,16.0345,0,12.8079,1,1,1,1,0,0,0,0,0,0,0,0,1,1,0,1,Act1
7.5054,1.2317,0.9621,0,0,7.6218,0,15.5497,1,1,1,1,0,2,2,0,1,1,0,0,1,1,0,1,Act-1
7.6444,1.2841,0.9049,0,1,9.6432,0,8.7139,0,1,1,1,0,0,0,0,0,1,0,0,1,1,0,1,Act1
7.6667,1.391,0.8997,0,1,16.9214,0,9.3938,0,1,1,1,0,0,0,0,0,1,0,0,1,0,0,1,Act1
7.4462,1.4212,0.8632,0,0,16.8069,0,11.7643,1,1,1,1,0,0,0,0,0,0,0,0,1,1,0,1,Act1
7.5222,1.2747,1.0976,0,0,9.8843,0,9.3462,1,1,1,1,0,2,2,0,0,1,0,0,1,1,0,1,Act1
7.3448,1.2634,1.0011,0,0,12.7343,0,11.5288,0,1,1,1,0,1,1,0,0,1,0,0,1,1,0,1,Act1
7.7451,1.414,0.7517,0,0,13.9259,0,12.8584,0,1,1,1,0,1,1,0,0,0,0,0,1,1,0,1,Act1
7.5889,1.3119,0.7934,0,0,9.9093,0,12.2051,1,1,1,1,0,1,1,0,0,0,0,0,1,1,0,1,Act1
7.9167,1.374,0.9855,1,1,9.4048,0,10.3462,1,1,1,1,0,0,0,0,0,1,0,0,1,1,0,1,Act1
7.4722,1.3156,0.8896,0,1,6.3121,0,12.2012,0,1,1,1,0,0,0,0,0,1,0,0,0,0,0,1,Act1
7.6262,1.3152,1.0779,0,0,14.9901,0,11.9935,1,1,1,1,1,2,2,0,0,1,0,0,1,1,0,1,Act1
7.5873,1.405,1.1151,0,1,9.8046,0,6.1452,1,1,0,1,0,0,0,0,0,1,0,0,1,1,0,1,Act1
8.2725,1.3481,1.0083,0,0,18.2566,0,12.4059,1,1,1,1,0,0,0,0,0,0,0,0,1,1,0,1,Act1
7.4905,1.3123,1.0678,0,0,15.9652,0,13.758,1,1,1,1,0,2,2,0,0,1,0,0,1,1,0,1,Act1
7.6559,1.3559,1.0554,0,1,9.139,0,9.9648,1,1,1,1,0,0,0,0,1,1,0,0,1,1,0,1,Act1
7.871,1.345,1.0775,0,1,8.1623,0,11.7353,1,1,1,1,0,0,0,0,1,1,0,0,1,1,0,1,Act1
7.4568,1.3146,0.8669,0,0,7.2698,0,10.587,1,1,1,1,0,1,1,0,0,0,0,0,1,1,0,1,Act1
7.9615,1.1878,0.6684,0,0,1.8722,0,6.9158,1,1,1,1,0,1,1,0,0,0,0,0,0,1,0,0,Act1
7.7778,1.4087,0.9837,0,0,12.93,0,8.2253,1,1,1,1,0,0,0,0,1,0,0,0,1,1,0,1,Act1
7.6528,1.3772,1.0668,0,0,27.4902,0,14.8161,1,1,1,1,0,0,0,0,0,0,0,0,0,1,0,1,Act1
7.4286,1.4013,0.8954,0,0,23.0526,0,11.6553,0,1,0,1,0,1,1,0,0,1,0,0,0,1,0,1,Act1
7.4236,1.3795,1.05,0,0,20.7017,0,10.7799,0,1,0,1,1,0,0,0,0,1,0,0,0,1,0,1,Act1
7.5185,1.4035,0.9069,0,0,19.9797,0,11.7353,0,1,1,1,0,0,0,0,0,1,0,0,0,1,0,1,Act-1
7.6131,1.4022,0.9386,0,0,19.5813,0,11.5866,1,1,1,1,0,0,0,0,0,1,0,0,0,1,0,1,Act-1
7.4236,1.3795,1.0911,0,0,20.808,0,11.6917,0,1,0,1,0,0,0,0,0,1,0,0,0,1,0,1,Act1
7.4815,1.4127,0.997,0,0,22.38,0,12.8769,0,1,1,1,0,0,0,0,0,1,0,0,0,1,0,1,Act1
7.6667,1.3986,0.8359,0,0,18.2616,0,10.8201,0,1,0,1,0,1,1,0,0,1,0,0,0,1,0,1,Act1
7.858,1.4046,1.1743,0,0,17.828,0,11.5866,0,1,0,1,0,0,0,0,0,1,0,0,0,1,0,1,Act1
7.523,1.4081,1.0958,0,0,20.0463,0,13.3648,1,1,1,1,0,0,0,0,0,1,0,0,0,1,0,1,Act-1
7.4551,1.3999,0.8792,0,0,22.3488,0,12.652,0,1,0,1,0,0,0,0,0,1,0,0,0,1,0,1,Act1
7.4815,1.4035,0.9521,0,0,22.4741,0,11.6553,0,1,1,1,0,0,0,0,0,1,0,0,0,1,0,1,Act1
7.6538,1.4069,1.0881,0,0,20.7828,0,12.8334,0,1,0,1,0,0,0,0,0,1,0,0,0,1,0,1,Act-1
7.4815,1.4058,1.1099,0,0,22.4481,0,12.8334,1,1,1,1,0,0,0,0,0,1,0,0,0,1,0,1,Act1
7.5769,1.4109,1.032,0,0,21.5536,0,12.8769,0,1,1,1,0,0,0,0,0,1,0,0,0,1,0,1,Act1
8.0259,1.3991,0.9953,0,0,19.0573,0,12.5545,0,1,0,1,0,0,0,0,0,1,0,0,0,1,0,1,Act1
7.4094,1.3112,0.9001,0,0,14.2629,0,10.4163,0,1,0,1,0,0,0,0,0,1,0,0,0,1,0,1,Act1
7.5486,1.6335,1.0705,0,1,23.727,0,7.3053,0,1,0,1,0,1,1,0,0,0,0,0,1,1,0,1,Act1
7.5069,1.6335,1.1116,0,1,26.2495,0,7.2259,0,1,0,1,0,0,0,0,0,0,0,0,1,0,0,1,Act1
7.6987,1.51,0.9312,0,1,13.7598,0,8.0127,1,1,1,1,0,1,1,0,0,0,0,0,1,0,0,1,Act1
7.7346,1.5453,1.1369,0,1,21.1022,0,8.9404,0,1,1,1,0,1,1,0,0,0,0,0,1,0,0,1,Act1
7.7387,1.519,1.0709,0,0,20.5581,0,12.5506,1,1,1,1,0,1,1,0,0,1,0,0,1,1,0,1,Act1
7.5885,1.5325,0.9539,0,0,23.5374,0,9.4796,1,1,1,1,0,1,1,0,0,1,0,0,1,0,0,1,Act1
7.6603,1.5374,0.9632,0,1,18.5569,0,8.3751,1,1,1,1,0,0,0,0,0,1,0,0,1,1,0,1,Act1
7.8276,1.5385,0.9651,0,1,17.9954,0,9.1918,1,1,1,1,0,2,2,0,0,1,0,0,1,1,1,1,Act1
7.6548,1.5395,0.8372,0,1,19.002,0,9.2186,1,1,1,1,0,0,0,0,0,1,0,0,1,1,0,1,Act1
7.6987,1.5465,0.8531,0,1,16.3308,0,9.0478,1,1,1,1,0,0,0,0,0,1,0,0,1,1,0,1,Act1
7.6548,1.5302,0.9195,0,1,19.0068,0,8.7382,1,1,1,1,0,0,0,0,0,1,0,0,1,1,0,1,Act1
7.7143,1.3309,0.7861,0,0,9.0321,0,5.0536,1,1,1,1,0,0,0,0,0,1,0,0,1,0,0,1,Act1
7.5267,1.4107,0.8112,0,0,17.8008,0,9.5657,0,1,1,1,0,0,0,0,0,1,0,0,1,0,0,1,Act1
7.5309,1.4084,0.9017,0,0,18.2185,0,10.59,0,1,1,1,0,0,0,0,0,1,0,0,1,0,0,1,Act1
7.8908,1.5377,1.1026,0,1,18.784,0,8.3093,0,1,1,1,0,0,0,0,0,1,0,0,1,1,0,1,Act1
7.9933,1.5588,1.0313,0,1,18.3875,2,8.3093,0,1,0,1,0,0,0,0,0,1,0,0,1,1,1,1,Act1
7.9839,1.5363,1.0345,0,1,18.5606,0,10.2569,1,1,1,1,0,0,0,0,0,1,0,0,1,1,0,1,Act-1
7.9598,1.5377,1.0646,0,1,18.6513,0,11.237,0,1,1,1,0,0,0,0,0,1,0,0,1,1,0,1,Act1
7.7071,1.5146,1.0366,0,1,23.0725,0,14.5893,0,1,1,1,0,0,0,0,0,1,0,0,1,1,0,1,Act1
7.8737,1.5244,1.1282,0,1,22.7242,0,8.1837,0,1,1,1,1,0,0,0,0,1,0,0,1,1,0,1,Act1
7.7172,1.5051,1.1959,0,1,23.2011,0,12.8812,1,1,1,1,0,0,0,0,0,1,0,0,1,1,0,1,Act1
7.8438,1.5799,1.0851,0,2,22.225,0,11.237,0,1,1,1,0,0,0,0,0,1,0,0,1,1,0,1,Act-1
7.537,1.3113,1.0186,0,1,18.421,0,11.5544,1,1,1,1,0,0,0,0,0,1,0,0,0,1,0,1,Act1
7.6068,1.265,1.0932,0,0,27.7548,0,11.307,0,1,1,1,0,0,0,1,0,0,0,0,1,1,0,1,Act1
7.4583,1.2723,1.039,0,0,28.9418,0,10.3674,0,1,1,1,0,0,0,1,0,0,0,0,1,1,0,1,Act1
7.654,1.3679,0.9787,0,0,16.7882,0,9.3314,1,1,1,1,0,0,0,0,0,1,0,0,1,0,0,1,Act1
7.5972,1.5597,0.8264,0,0,17.7725,0,9.4218,1,1,1,1,0,0,0,0,0,1,0,0,1,1,0,1,Act-1
7.9423,1.5413,0.935,0,0,13.6967,0,7.5569,0,1,1,1,0,0,0,0,0,1,0,0,1,1,0,1,Act1
8.2649,1.324,0.9275,0,0,7.5695,0,6.3756,1,1,1,1,0,0,0,0,0,1,0,0,1,1,0,1,Act1
7.7312,1.3884,0.8914,0,0,18.3235,0,13.9933,1,1,1,1,0,0,0,0,0,0,0,0,0,1,0,1,Act1
7.6157,1.4946,0.9949,0,0,23.7608,0,13.1737,1,1,1,1,0,0,0,0,0,1,0,0,1,1,0,1,Act1
7.3205,1.4355,1.0012,0,0,19.5041,0,9.9697,0,1,0,1,0,0,0,0,0,1,0,0,1,1,0,1,Act1
7.3457,1.4391,0.9771,0,0,19.4533,0,10.8593,0,1,0,1,0,0,0,0,0,1,0,0,1,1,0,1,Act1
7.5591,1.5241,1.0238,0,0,25.4997,0,12.4593,1,1,1,1,0,0,0,0,0,1,0,0,1,1,0,1,Act1
7.6559,1.5114,0.9907,0,0,22.5624,0,10.5561,0,1,1,1,1,0,0,0,0,1,0,0,1,1,0,1,Act1
7.5111,1.526,0.9922,0,0,26.6795,0,10.9402,0,1,1,1,0,0,0,0,0,1,0,0,1,1,0,1,Act1
7.536,1.3316,1.0824,0,0,19.3305,0,15.639,1,1,1,1,0,2,2,0,0,1,0,0,1,1,0,1,Act1
7.6494,1.4246,0.9211,0,0,14.6234,0,11.7643,1,1,1,1,0,0,0,0,0,0,0,0,1,1,0,1,Act1
8.386,1.3184,1.1208,0,0,3.3418,0,4.635,0,1,1,0,1,0,0,0,0,1,0,0,1,1,1,1,Act-1
7.8041,1.3099,0.6973,0,0,7.6334,0,5.4227,0,1,1,1,1,0,0,0,0,1,0,0,1,1,0,1,Act1
8.0088,1.3161,0.7661,0,0,6.5711,0,5.2569,0,1,1,1,1,0,0,0,0,1,0,0,1,1,0,1,Act1
7.6333,1.4259,0.9733,0,0,10.3096,1,9.947,1,1,0,1,0,0,0,0,0,1,0,0,1,1,1,1,Act1
7.8241,1.3783,0.9392,0,0,13.1645,0,14.1947,1,1,1,1,0,0,0,0,0,1,0,0,1,1,0,1,Act1
7.8838,1.4394,1.0437,0,0,12.0983,0,14.8709,1,1,1,1,0,1,1,0,0,1,0,0,1,1,0,1,Act1
7.8622,1.3916,1.0294,0,0,10.9992,0,12.2547,1,1,1,1,0,1,1,0,0,1,0,0,1,1,0,1,Act1
7.7853,1.2793,0.9652,0,0,5.7584,0,10.951,1,1,1,1,0,0,0,0,0,1,0,0,1,1,0,1,Act1
7.5833,1.4119,0.8388,0,0,17.788,0,10.1646,1,1,1,1,0,0,0,0,0,0,0,0,0,0,0,1,Act1
7.6603,1.404,0.8151,0,0,13.5333,0,9.4061,1,1,1,1,0,0,0,0,0,0,0,0,0,0,0,1,Act1
7.7202,1.4004,0.8166,0,0,11.0913,0,9.5673,1,1,1,1,0,0,0,0,0,0,0,0,0,0,0,1,Act1
7.6911,1.4124,0.9324,0,0,13.2038,0,10.519,1,1,1,1,0,0,0,0,0,0,0,0,0,0,0,1,Act1
7.6905,1.4,0.7566,0,0,11.6244,0,8.6959,1,1,1,1,0,0,0,0,0,0,0,0,0,0,0,1,Act1
7.7452,1.3968,0.7578,0,0,9.2055,0,8.73,1,1,1,1,0,0,0,0,0,0,0,0,0,0,0,1,Act1
7.7094,1.3955,0.8444,0,0,11.1832,0,9.5673,1,1,1,1,0,0,0,0,0,0,0,0,0,0,0,1,Act1
7.8437,1.3835,0.9531,0,0,13.0108,0,14.5677,1,1,1,1,1,2,2,0,0,0,0,0,1,1,0,1,Act1
7.609,1.4469,1.0706,0,0,13.2978,0,11.584,0,1,1,1,0,0,0,0,0,1,0,0,1,1,0,1,Act1
8.0309,1.4404,1.0794,0,0,9.573,0,11.1994,0,1,1,1,0,0,0,0,0,1,0,0,1,1,0,1,Act1
7.7083,1.4416,0.8856,0,0,14.5547,0,8.2635,1,1,1,1,0,0,0,0,0,1,0,0,1,1,0,1,Act1
7.6801,1.1437,0.9657,0,0,7.1594,0,15.0499,1,1,1,1,0,1,1,0,0,0,0,0,0,0,0,0,Act1
7.8727,1.4066,1.3079,0,0,12.443,0,8.916,0,1,1,1,0,0,0,0,0,0,0,0,0,0,0,1,Act1
7.9086,1.4685,1.0549,0,0,19.6525,0,11.4264,0,1,1,1,0,0,0,0,0,1,0,0,1,1,0,1,Act1
8.0521,1.4702,1.0323,0,0,20.2365,0,11.2105,1,1,1,1,0,0,0,0,0,1,0,0,1,1,0,1,Act1
8.1552,1.4042,0.976,0,0,9.0601,0,11.9195,0,1,1,1,0,0,0,0,0,0,0,0,1,1,0,1,Act1
7.6897,1.3628,1.1367,0,0,19.5694,0,14.7567,0,1,1,1,1,0,0,0,0,0,0,0,0,0,0,1,Act1
7.8814,1.3303,0.7503,0,0,13.1012,0,12.0971,1,1,1,1,0,0,0,0,0,0,0,0,0,0,0,1,Act1
7.7381,1.4997,1.163,0,0,17.2271,0,8.8175,1,1,1,1,0,0,0,0,0,1,0,0,1,1,0,1,Act1
7.5056,1.2673,0.8959,0,0,10.2337,0,11.2464,0,1,1,1,0,0,0,0,0,1,0,0,1,1,1,1,Act-1
8.2121,1.474,1.0722,0,0,13.395,0,6.5467,0,1,1,1,0,0,0,0,0,1,0,0,1,1,0,1,Act1
7.7885,1.3019,0.6844,0,0,13.1579,0,12.0094,1,1,1,1,0,0,0,0,0,0,0,0,1,1,0,1,Act1
7.7424,1.2343,1.2376,0,0,0,0,10.5321,1,1,1,1,0,0,0,0,0,0,0,0,0,0,0,0,Act1
7.6346,1.151,0.9008,0,0,5.1013,0,10.8436,1,1,1,1,0,0,0,0,0,0,0,0,1,1,0,0,Act1
7.9147,1.2583,1.1493,0,0,3.172,0,9.9805,0,1,1,1,0,0,0,0,0,0,0,0,0,1,0,0,Act1
7.4921,1.1429,0.8032,0,0,6.9411,0,7.3782,0,1,0,1,0,0,0,0,0,0,0,0,1,1,0,0,Act1
7.96,1.156,0.9675,0,0,6.4767,0,9.3598,1,1,1,1,0,1,1,0,1,0,0,0,1,1,1,0,Act1
7.7796,1.4981,0.8716,0,0,19.4237,0,14.0217,1,1,1,1,0,1,1,0,0,1,0,0,1,1,0,1,Act1
7.7011,1.4749,0.9438,0,0,14.9026,0,11.9647,1,1,1,1,0,1,1,0,0,1,0,0,1,1,0,1,Act1
7.7011,1.4749,0.9903,0,0,14.8495,0,11.4326,0,1,1,1,0,2,2,0,0,1,0,0,1,1,0,1,Act1
7.8951,1.3799,1.0424,0,0,15.3269,0,11.51,0,1,1,1,0,0,0,0,1,1,0,0,1,1,0,1,Act1
8.0833,1.3828,1.0419,0,0,12.5017,0,11.4387,0,1,1,1,0,0,0,0,1,1,0,0,1,1,0,1,Act1
7.8205,1.4138,0.9573,0,0,11.0391,0,9.8322,1,1,1,1,0,1,1,0,0,1,0,0,0,1,0,1,Act-1
7.7759,1.3651,1.227,0,0,15.0039,0,14.5249,1,1,1,1,0,1,1,0,0,1,0,0,1,1,0,1,Act-1
7.6611,1.2424,1.1008,0,0,7.4506,0,11.3874,1,1,1,1,0,1,1,0,1,0,0,0,1,1,0,1,Act1
7.7072,1.4401,0.9768,0,0,15.7754,0,15.4399,1,1,1,1,0,2,2,0,0,1,0,0,1,1,0,1,Act1
7.7714,1.4197,0.9759,0,0,13.2675,0,16.8927,1,1,1,1,0,0,0,0,0,1,0,0,1,1,0,1,Act-1
7.9144,1.3507,0.9756,0,0,16.7723,0,17.1539,1,1,1,1,0,0,0,0,0,1,0,0,1,1,0,1,Act-1
7.8436,1.2329,0.8281,0,0,4.6081,0,7.5222,1,1,1,1,0,0,0,0,0,0,0,0,1,1,0,0,Act1
7.8436,1.2318,0.8281,0,0,4.759,0,8.093,1,1,1,1,0,0,0,0,0,0,0,0,1,1,0,0,Act1
7.5926,1.5138,0.9225,0,1,14.0545,0,13.0991,1,1,1,1,0,0,0,0,0,1,0,0,0,1,0,1,Act1
7.5259,1.4351,1.2518,0,0,14.0671,0,8.3705,1,1,1,1,0,0,0,0,0,0,0,0,1,1,0,1,Act1
7.7586,1.3723,1.088,0,0,10.1254,0,6.813,1,1,1,1,0,1,1,0,0,1,0,0,1,1,0,1,Act1
7.5367,1.3401,1.0924,0,0,14.4117,0,7.681,0,1,0,1,0,0,0,0,0,0,0,0,1,1,0,1,Act1
7.7031,1.297,0.9489,0,0,15.2264,0,15.9133,0,1,1,1,0,0,0,0,1,1,0,0,1,1,0,1,Act1
7.7381,1.4137,0.9838,0,0,15.1606,0,10.6051,0,1,1,1,0,0,0,0,0,0,0,0,1,1,0,1,Act1
7.8551,1.4032,0.8938,0,0,12.39,0,8.3199,1,1,1,1,0,0,0,0,0,0,0,0,1,1,0,1,Act1
8.075,1.4175,0.9856,0,0,12.8043,0,10.0707,0,1,1,1,0,0,0,0,0,0,0,0,1,1,0,1,Act1
8.3175,1.4163,0.7887,0,0,9.7948,0,8.3199,0,1,1,1,0,0,0,0,0,0,0,0,1,1,0,1,Act1
8.5104,1.4021,0.907,0,0,11.826,0,10.0707,0,1,1,1,0,0,0,0,0,0,0,0,1,1,0,1,Act1
8.0317,1.4122,0.9884,0,0,11.6596,0,10.529,0,1,1,1,0,0,0,0,0,0,0,0,1,1,0,1,Act1
7.7133,1.498,1.1707,0,0,19.5513,0,11.3921,1,1,1,1,0,0,0,0,0,1,0,0,1,1,0,1,Act1
7.6207,1.3526,0.9414,0,0,20.1967,0,10.6019,1,1,1,1,0,1,1,0,0,0,0,0,0,0,0,1,Act1
7.75,1.3371,0.8167,0,0,6.0984,0,9.3672,1,1,1,1,1,1,1,0,0,0,0,0,0,1,0,1,Act1
7.8467,1.3603,0.8234,0,0,7.6457,0,10.3085,1,1,1,1,0,1,1,0,0,1,0,0,1,1,0,1,Act1
7.7667,1.3569,0.8836,0,0,7.6091,0,10.3085,1,1,1,1,0,1,1,0,0,1,0,0,1,1,0,1,Act1
7.7372,1.3528,0.844,0,0,7.7472,0,10.3085,1,1,1,1,0,1,1,0,0,1,0,0,1,1,0,1,Act1
7.6667,1.2182,0.9176,0,0,5.8219,0,14.9618,0,1,1,1,0,0,0,0,0,0,0,0,1,1,0,0,Act1
7.6398,1.2373,0.8478,0,0,17.6983,0,14.6693,0,1,1,1,0,0,0,0,0,0,0,0,0,1,0,1,Act1
7.9105,1.3244,1.0003,0,0,10.3213,0,9.205,1,1,1,1,2,0,0,0,0,1,0,0,0,1,0,1,Act1
7.9722,1.3244,0.9032,0,0,9.4076,0,8.9405,1,1,1,1,1,0,0,0,0,1,0,0,0,1,0,1,Act1
7.8905,1.3583,1.1522,0,0,13.4045,0,11.7677,1,1,1,1,0,0,0,0,0,0,0,0,1,0,0,1,Act1
7.8657,1.3609,1.133,0,0,13.4899,0,12.6826,1,1,1,1,0,0,0,0,0,0,0,0,1,0,0,1,Act1
7.5363,1.1863,0.9576,0,0,7.2119,0,12.962,0,1,1,1,0,0,0,0,1,1,0,0,1,1,0,0,Act1
7.8167,1.2995,1.0001,0,0,14.232,0,10.6662,1,1,1,1,0,0,0,0,1,1,0,0,1,1,0,1,Act1
7.95,1.2945,0.9959,0,0,13.0509,0,11.7049,1,1,1,1,0,0,0,0,1,1,0,0,1,1,0,1,Act1
7.78,1.206,0.9018,0,0,7.1973,0,9.782,1,1,1,1,0,0,0,0,1,1,0,0,1,1,0,0,Act1
7.9753,1.3014,0.9652,0,0,14.8488,0,10.9393,0,1,0,1,0,0,0,0,1,1,0,0,1,1,0,1,Act1
7.7976,1.3003,1.1201,0,0,16.502,0,10.9393,1,1,1,1,0,0,0,0,1,1,0,0,1,1,0,1,Act1
8.3939,1.2964,1.1909,0,0,10.5045,1,9.5878,1,1,1,1,0,0,0,0,1,1,0,1,1,1,0,1,Act1
7.9806,1.274,0.9922,0,0,7.0235,1,7.4979,1,1,1,1,1,2,2,0,1,1,0,1,1,1,0,1,Act1
7.78,1.206,1.2564,0,0,7.222,0,8.8514,1,1,1,1,0,0,0,0,1,1,0,0,1,1,0,0,Act1
7.95,1.2945,0.9935,0,0,13.1186,0,11.344,1,1,1,1,0,0,0,0,1,1,0,0,1,1,0,1,Act1
7.5123,1.187,0.9998,0,0,7.4241,0,11.4409,1,1,1,1,0,0,0,0,1,1,0,0,1,1,0,0,Act1
7.8046,1.2942,0.9836,0,0,14.4061,0,12.925,1,1,1,1,0,1,1,0,1,1,0,0,1,1,0,1,Act1
7.8167,1.3016,1.1119,0,0,14.2778,0,11.7005,1,1,1,1,0,0,0,0,1,1,0,0,1,1,0,1,Act1
7.8046,1.2942,1.0796,0,0,16.5085,0,10.4063,1,1,1,1,0,0,0,0,1,1,0,0,1,1,0,1,Act1
8.3939,1.2964,1.1058,0,0,10.3749,1,10.1096,1,1,1,1,0,0,0,0,1,1,0,1,1,1,0,1,Act1
7.7759,1.3001,1.13,0,0,14.7815,0,12.6774,1,1,1,1,0,0,0,0,1,1,0,0,1,1,0,1,Act1
7.9828,1.3051,0.9269,0,0,12.9804,0,11.5982,1,1,1,1,0,0,0,0,1,1,0,0,1,1,0,1,Act1
7.6782,1.3903,0.8866,0,0,14.0961,0,10.3583,0,1,1,1,0,0,0,0,0,1,0,0,1,1,0,1,Act1
7.381,1.2846,0.8732,0,0,7.5397,0,11.259,0,1,1,1,0,0,0,0,0,1,0,0,1,1,0,1,Act1
7.9295,1.4996,1.0053,1,0,15.9694,0,11.0946,0,1,1,1,0,1,1,0,0,0,0,0,0,1,0,1,Act1
7.9975,1.5109,0.8454,0,0,10.6566,2,11.4827,1,1,1,1,0,0,0,0,0,1,0,0,1,1,1,1,Act1
8.0435,1.2648,0.9539,0,0,2.5657,0,7.6053,0,1,1,1,0,0,0,0,0,0,0,0,0,0,0,0,Act1
7.8333,1.2026,0.9889,0,0,9.9699,0,11.1024,1,1,1,1,0,0,0,0,0,0,0,0,0,0,0,0,Act1
7.6556,1.4123,1.1494,0,0,18.9874,0,11.7498,1,1,0,1,0,0,0,0,0,1,0,0,1,1,0,1,Act1
7.8556,1.4123,1.1655,0,0,16.7544,0,10.6051,1,1,0,1,0,0,0,0,0,1,0,0,1,1,0,1,Act1
7.6998,1.323,1.2929,0,0,11.0812,0,9.5306,1,1,0,1,0,0,0,0,0,1,0,0,1,1,0,1,Act1
7.7259,1.4173,1.0648,0,0,18.3383,0,11.1853,1,1,0,1,0,0,0,0,0,1,0,0,1,1,0,1,Act1
7.8994,1.3875,0.975,0,0,17.6558,0,7.8172,1,1,1,1,0,0,0,0,0,1,0,0,1,0,0,1,Act1
8.3778,1.5168,0.9416,0,0,18.7928,0,10.7775,1,1,1,1,0,0,0,0,0,0,0,0,1,0,0,1,Act1
8.1371,1.4328,0.8726,0,0,10.491,0,9.4914,0,1,1,1,1,0,0,0,0,0,0,0,1,1,0,1,Act1
8.0181,1.4044,1.0478,0,0,11.2632,0,4.6427,1,1,0,1,0,2,2,0,0,0,0,0,1,1,0,1,Act1
7.74,1.3177,0.8548,0,0,14.9345,0,11.4827,1,1,1,1,0,1,1,0,0,0,0,0,1,0,0,1,Act1
7.5774,1.376,1.0178,0,0,11.7381,0,13.895,0,1,1,1,0,2,2,0,0,1,0,0,1,1,0,1,Act1
7.9391,1.4928,1.1546,0,0,15.1672,0,7.0392,1,1,1,1,0,0,0,0,0,1,0,0,1,1,0,1,Act1
7.7214,1.4731,1.0773,0,0,14.9678,0,9.4948,0,1,1,1,1,0,0,0,0,1,0,0,1,1,0,1,Act1
8.2213,1.357,0.7987,0,0,11.8502,0,11.3037,1,1,1,1,0,0,0,0,0,1,0,0,1,1,0,1,Act1
7.5673,1.196,0.8596,0,0,8.309,0,10.3916,0,1,1,1,0,1,1,0,0,0,0,0,0,0,0,0,Act1