@relation J48_training-comb.arff-weka.filters.unsupervised.attribute.Remove-R25

@attribute Psi_e_A numeric
@attribute PCR numeric
@attribute GATS8i numeric
@attribute nRCOOH numeric
@attribute nImidazoles numeric
@attribute SaaCH numeric
@attribute CATS2D_07_AP numeric
@attribute SHED_LL numeric
@attribute B05[N-O] numeric
@attribute B06[C-C] numeric
@attribute B07[C-O] numeric
@attribute B08[C-C] numeric
@attribute F03[N-S] numeric
@attribute F09[N-N] numeric
@attribute F09[N-N] numeric
@attribute MACCSFP8 numeric
@attribute MACCSFP37 numeric
@attribute MACCSFP38 numeric
@attribute MACCSFP48 numeric
@attribute MACCSFP49 numeric
@attribute MACCSFP62 numeric
@attribute MACCSFP80 numeric
@attribute MACCSFP84 numeric
@attribute MACCSFP125 numeric
@attribute Actividad {Act1,Act-1}

@data
7.5345,1.5385,0.8974,0,0,21.9362,0,10.637,0,1,0,1,0,1,1,0,0,1,0,0,1,1,0,1,Act1
7.4397,1.1563,1.031,0,0,0,0,11.9063,0,1,1,1,0,0,0,0,0,0,0,0,0,0,0,0,Act1
7.5611,1.1828,1.1164,0,0,0,0,11.4908,0,1,1,1,0,0,0,0,0,0,0,0,0,0,0,0,Act-1
7.6389,1.1546,1.0503,0,0,0,0,11.6669,0,1,1,1,0,0,0,0,0,0,0,0,0,0,0,0,Act-1
8.3892,1.1107,1.0411,6,0,21.7512,0,6.7321,1,1,1,1,0,18,18,0,0,0,0,0,0,1,1,1,Act-1
8.6786,1.2483,0.1721,0,0,4.1243,1,2.8717,0,1,1,0,0,0,0,0,0,0,0,1,0,0,0,0,Act-1
8.1515,1.2536,0.0445,0,0,6.471,1,2.8717,0,0,0,0,0,0,0,0,0,0,0,1,0,0,0,0,Act-1
7.4583,1.3874,0.4557,0,0,10.4486,0,4.3952,0,1,0,0,0,0,0,0,0,0,0,1,0,0,0,1,Act-1
7.918,1.2483,1.0482,0,0,5.8983,0,6.9481,1,1,1,1,0,1,1,0,0,0,0,1,0,1,0,0,Act-1
8.0294,1.3725,0.7583,0,0,13.279,2,6.3053,0,1,1,1,0,0,0,0,0,0,0,1,0,0,0,1,Act1
8.0625,1.3873,0.7185,0,0,13.1814,0,6.3053,0,1,1,1,2,0,0,0,0,0,0,1,0,0,0,1,Act1
7.9091,1.4494,0,0,0,11.0608,0,3.3889,0,0,0,0,0,0,0,0,0,0,0,1,0,0,0,1,Act-1
7.8077,1.4262,0.6405,0,0,16.7564,0,5.9952,0,1,0,0,0,0,0,0,0,0,0,1,1,0,0,1,Act-1
8.4943,1.1569,0.7992,2,0,4.2781,0,10.8047,1,1,1,1,0,0,0,0,0,0,0,0,0,0,0,0,Act-1
7.6574,1.1932,0.9929,0,0,4.0006,0,7.5836,1,1,1,1,0,0,0,0,0,0,0,0,0,1,1,0,Act-1
7.6225,1.4087,0.9155,0,0,7.2651,0,3,0,1,0,1,0,0,0,0,0,0,0,0,0,1,0,1,Act-1
7.8864,1.458,0.9417,0,0,10.737,0,8.2715,0,1,1,1,0,0,0,0,0,0,0,0,0,0,0,1,Act-1
7.381,1.0654,1.0003,0,0,0,0,7.6395,0,1,1,1,0,0,0,0,0,0,0,0,0,0,0,0,Act-1
7.6377,1.1217,0.9873,0,0,0,0,7.3286,0,1,1,1,0,0,0,0,0,0,0,0,0,0,0,0,Act-1
7.5903,1.0861,0.9867,0,0,0,0,7.3286,0,1,1,1,0,0,0,0,0,0,0,0,0,0,0,0,Act1
7.6389,1.0829,0.9243,0,0,0,0,7.2236,0,1,1,1,0,0,0,0,0,0,0,0,0,0,0,0,Act1
7.6212,1.0789,1.008,0,0,0,0,7.1598,0,1,1,1,0,0,0,0,0,0,0,0,0,0,0,0,Act-1
7.5942,1.0767,0.9759,0,0,0,0,7.3286,0,1,1,1,0,0,0,0,0,0,0,0,0,0,0,0,Act1
7.6667,1.1869,1.0164,0,0,0,0,7.3286,0,1,1,1,0,0,0,0,0,0,0,0,0,0,0,0,Act1
7.4203,1.0708,0.903,0,0,0,0,7.7091,0,1,1,1,0,0,0,0,0,0,0,0,0,0,0,0,Act-1
7.6364,1.1804,1.0467,0,0,5.8747,0,7.1598,0,1,1,1,0,0,0,0,0,0,0,0,0,0,0,0,Act1
7.5217,1.1783,1.0276,0,0,6.5865,0,7.1598,0,1,1,1,0,0,0,0,0,0,0,0,0,0,0,0,Act1
7.4198,1.1666,1.0981,0,0,6.8803,0,11.2296,0,1,1,1,0,0,0,0,0,0,0,0,0,0,0,0,Act1
7.6136,1.077,1.022,0,0,0,0,7.1598,0,1,1,1,0,0,0,0,0,0,0,0,0,0,0,0,Act1
7.7024,1.0753,0.9926,0,0,0,0,9.2566,0,1,1,1,0,0,0,0,0,0,0,0,0,0,0,0,Act-1
7.6933,1.079,1,0,0,0,0,7.8908,0,1,1,1,0,0,0,0,0,0,0,0,0,0,0,0,Act1
8.3565,1.276,1.0687,0,0,5.8602,0,7.4102,0,1,1,1,0,0,0,0,0,0,0,0,0,0,0,0,Act-1
8.3179,1.1445,0,0,0,0,0,4.7785,0,0,0,0,0,0,0,0,0,0,0,0,0,0,0,0,Act-1
8.281,1.4442,1.0189,2,0,8.0891,0,9.4889,1,1,1,1,0,1,1,0,0,1,0,0,0,1,1,1,Act1
7.5972,1.2813,0.6924,0,0,10.3083,0,6.7572,0,1,0,1,0,0,0,0,0,0,0,0,0,0,0,0,Act-1
7.5128,1.2599,0.8134,0,0,8.5838,0,6.9805,0,1,0,1,0,0,0,0,0,0,0,0,0,0,0,0,Act1
7.8532,1.2748,0.7732,0,0,5.552,0,6.6787,0,1,0,0,0,0,0,0,0,0,0,0,0,0,0,0,Act-1
7.9369,1.4706,0.8499,0,1,12.4961,0,10.2998,0,1,1,1,0,0,0,0,0,1,0,0,1,1,0,1,Act1
7.873,1.4757,0.8773,0,1,14.6188,0,8.8058,0,1,1,1,0,0,0,0,0,1,0,0,1,1,0,1,Act1
7.3512,1.3567,0.9693,0,0,32.3638,0,13.3785,0,1,0,1,0,0,0,0,0,0,0,0,0,0,0,1,Act1
7.2278,1.0496,0.9667,0,0,0,0,13.204,1,1,1,1,0,1,1,0,0,0,0,0,0,1,1,0,Act1
7.7593,1.3556,0.7722,0,1,17.7184,0,10.4432,1,1,1,1,0,0,0,0,0,0,0,0,0,0,0,1,Act1
7.9653,1.3372,1.3379,0,0,3.1586,0,15.4521,1,1,1,1,2,0,0,0,0,1,0,0,0,1,1,1,Act1
7.9259,1.3444,1.1212,0,0,20.4024,0,17.9414,1,1,1,1,2,0,0,0,0,1,0,0,0,1,1,1,Act1
7.8476,1.1513,0.8534,0,0,1.9609,0,12.321,1,1,1,1,0,0,0,0,0,0,0,0,0,0,0,0,Act1
8.5111,1.3101,1.1791,1,0,5.9239,0,3.7798,1,1,1,0,0,0,0,0,0,0,0,0,0,0,0,0,Act-1
7.8816,1.0609,0.4643,0,0,0,0,7.4222,0,1,1,1,0,0,0,0,0,0,0,0,0,1,0,0,Act-1
9.057,1.2661,0.9089,0,0,3.7214,0,7.2158,0,1,1,1,0,0,0,0,0,0,0,0,0,1,0,0,Act1
8.0812,1.623,1.0775,0,0,31.7421,1,14.2761,1,1,1,1,0,11,11,0,1,0,0,0,0,0,1,1,Act-1
7.6898,1.2236,0.175,0,0,1.6741,0,6.3633,0,1,0,0,0,0,0,0,0,0,0,0,0,0,0,0,Act1
7.9704,1.1158,0.7627,0,0,0,0,10.4133,0,1,1,1,0,0,0,0,0,0,0,0,0,0,0,0,Act1
7.7333,1.2681,0.7953,0,0,7.9186,0,7.1749,0,1,0,1,0,0,0,0,0,0,0,0,0,0,0,0,Act-1
7.9922,1.0317,1.0301,0,0,0,0,17.6572,1,1,1,1,0,11,11,0,0,0,0,0,0,0,0,0,Act-1
8.5833,1.2399,0,1,0,0,0,3.5961,0,0,0,0,0,0,0,0,0,0,0,0,0,0,0,0,Act-1
8.2593,1.2096,0.9247,1,0,5.8906,0,10.9033,1,1,1,1,1,0,0,1,0,0,0,0,0,0,1,0,Act-1
8.5633,1.2067,1.5828,0,0,0,0,9.0798,0,1,1,1,0,0,0,0,0,0,0,0,0,0,0,0,Act1
7.49,1.1651,0.8304,0,0,8.7281,0,7.568,1,1,1,1,0,0,0,0,0,0,0,0,0,0,0,0,Act1
7.6898,1.1951,0.4663,0,0,0,0,5.5454,0,1,1,0,0,0,0,0,0,0,0,0,0,1,1,0,Act-1
7.5641,1.2653,0.8659,0,0,10.2228,0,2.8717,0,1,0,1,0,0,0,0,0,0,0,0,0,0,0,0,Act-1
8.5573,1.2291,0.4059,1,0,4.116,1,4.436,0,1,1,0,0,0,0,0,0,0,0,0,0,0,1,0,Act-1
8.0181,1.4044,1.0478,0,0,11.2632,0,4.6427,1,1,0,1,0,2,2,0,0,0,0,0,1,1,0,1,Act1
7.9949,1.4583,1.127,0,0,14.3277,0,14.9221,1,1,1,1,0,0,0,0,0,1,0,0,1,1,1,1,Act1
7.325,1.0549,0.7609,0,0,0,0,6.2442,0,1,1,1,0,0,0,0,0,0,0,0,0,0,0,0,Act-1
7.3382,1.3426,0.8362,0,0,17.6642,0,6.2761,0,1,0,0,0,0,0,0,0,0,0,0,0,0,0,1,Act1
8.0139,1.1797,1.1155,0,0,5.2794,0,6.0922,0,1,1,1,0,0,0,0,0,0,1,1,0,0,0,0,Act1
7.7523,1.112,1.0221,0,0,0,0,9.4242,0,1,1,1,0,0,0,0,0,0,0,0,0,0,0,0,Act1
7.9679,1.0621,0.8646,0,0,0,0,6.1324,0,1,1,1,0,0,0,0,0,0,0,0,0,0,0,0,Act1
7.4954,1.1817,0.5805,0,0,5.8704,0,5.6521,0,1,1,0,0,0,0,0,0,0,0,0,0,0,1,0,Act-1
8.4962,1.3177,1.0034,0,0,12.1334,0,11.0438,1,1,1,1,0,2,2,0,1,0,0,0,1,1,0,1,Act1
8.5332,1.4376,1.1295,0,0,2.8829,0,8.0581,0,1,0,1,0,0,0,0,0,1,0,0,1,1,0,1,Act1
7.6543,1.4054,1.3251,0,0,10.263,0,11.6858,1,1,1,1,3,0,0,0,0,1,0,0,0,1,1,1,Act1
7.6282,1.594,1.0873,0,1,15.1275,0,6.5975,0,1,0,1,0,1,1,0,0,1,0,0,1,1,0,1,Act1
8.3967,1.3202,1.2165,0,0,7.4623,0,4.888,1,1,0,1,0,1,1,0,0,0,0,0,0,1,0,1,Act1
8.0635,1.4208,1.0994,0,0,10.1892,0,12.8104,1,1,1,1,0,0,0,0,0,0,0,0,1,1,0,1,Act1
8.3684,1.0647,0.9203,0,0,0,0,0,0,1,1,0,0,1,1,0,0,0,0,0,0,0,0,0,Act-1
7.6875,1.3272,1.0879,0,0,8.4347,0,7.4882,0,1,1,1,0,0,0,0,0,0,0,0,0,1,0,1,Act-1
7.9655,1.2419,0.9117,1,0,18.7239,0,14.6963,0,1,1,1,1,0,0,0,0,0,0,0,0,0,0,1,Act1
7.8939,1.2496,0,0,0,9.4319,0,5.0763,0,1,0,0,0,0,0,0,0,0,0,0,0,0,1,0,Act1
9.1667,1.048,0,1,0,0,0,0,0,0,0,0,0,0,0,0,0,0,0,0,0,0,1,0,Act-1
8.3488,1.0861,0.8862,1,0,0,0,6.3053,1,1,1,1,2,0,0,1,0,0,0,0,0,0,1,0,Act-1
8.325,1.0972,0.8016,1,0,0,0,2.7495,0,1,1,1,2,0,0,1,0,0,0,0,0,0,0,0,Act-1
7.9268,1.0865,1.0397,0,0,0,0,11.2824,1,1,1,1,2,0,0,1,0,0,0,0,1,0,0,0,Act-1
8.6622,1.1776,0.7516,0,0,1.317,0,8.7454,1,1,1,1,0,0,0,0,1,1,0,0,1,1,0,0,Act-1
8.0946,1.2993,0.9906,0,0,0,0,14.9087,1,1,1,1,0,0,0,0,0,0,0,0,0,1,0,0,Act1
8.0981,1.2553,0.9142,0,0,2.8185,2,15.756,1,1,1,1,0,2,2,0,0,0,0,0,0,1,1,0,Act1
7.7991,1.0243,1.0035,0,0,0,0,13.8157,0,1,1,1,1,0,0,0,0,0,0,0,0,0,1,0,Act1
7.875,1.1633,1.0834,0,0,15.0057,0,16.7303,1,1,1,1,0,0,0,0,0,0,0,0,1,0,0,1,Act-1
7.878,1.0378,0.9124,0,0,0,0,11.8242,0,1,1,1,0,0,0,0,0,0,0,0,1,0,0,0,Act1
7.8509,1.0336,0.9316,0,0,0,0,10.6087,0,1,1,1,0,0,0,0,0,0,0,0,1,0,0,0,Act-1
8.0376,1.0992,0.9329,0,0,0,0,11.3158,0,1,1,1,0,0,0,0,0,0,0,0,0,0,0,0,Act1
8.3506,1.1004,0.8918,0,0,0,0,7.041,0,1,1,1,0,0,0,0,0,0,0,0,0,0,0,0,Act-1
8.2452,1.0979,0.8787,0,0,0,0,11.4963,0,1,1,1,0,0,0,0,0,0,0,0,0,0,0,0,Act1
7.9683,1.1468,1.0451,0,0,4.4465,0,9.8754,0,1,1,1,0,0,0,0,0,0,0,0,0,0,0,0,Act1
8.1726,1.1018,0.8255,0,0,0,0,6.944,0,1,1,1,0,0,0,0,0,0,0,0,0,0,0,0,Act-1
8.1019,1.1705,0.8068,0,0,5.8075,0,11.0742,1,1,1,1,0,0,0,0,0,0,0,0,0,0,0,0,Act1
8.0525,1.1036,0.8106,0,0,0,0,7.0084,0,1,1,1,0,0,0,0,0,0,0,0,0,0,0,0,Act1
7.6553,1.321,0.7566,0,0,9.8662,0,8.1595,0,1,1,1,0,0,0,0,0,0,0,0,1,1,0,1,Act1
7.9568,1.0141,0.8085,1,0,0,0,8.9013,0,1,1,1,0,0,0,0,0,0,0,0,0,0,0,0,Act-1
7.9412,1.3992,1.0825,0,0,8.3325,0,8.8256,0,1,1,1,0,0,0,0,0,0,0,0,0,1,0,1,Act1
8.3063,1.1426,0.9852,0,0,4.1088,0,9.8156,0,1,1,1,0,0,0,0,0,0,0,0,0,0,0,0,Act1
7.8188,1.3147,0.9174,0,0,5.3688,0,6.0891,1,1,1,1,0,1,1,0,0,1,0,0,0,1,0,1,Act-1
8.3889,1.2272,0.8944,0,0,2.91,0,8.9026,1,1,1,1,0,0,0,0,0,0,0,0,0,1,0,0,Act-1
7.6284,1.2493,0.9256,0,0,10.5726,0,13.2457,1,1,1,1,0,2,2,0,0,0,0,0,0,1,0,1,Act1
7.8817,1.231,0.9315,1,0,15.9615,0,12.455,1,1,1,1,0,0,0,0,0,0,0,0,1,0,0,1,Act1
7.9295,1.4996,1.0053,1,0,15.9694,0,11.0946,0,1,1,1,0,1,1,0,0,0,0,0,0,1,0,1,Act1
7.7069,1.4153,1.404,0,0,9.3934,0,7.0392,1,1,1,1,1,2,2,0,0,1,0,0,1,1,0,1,Act1
7.6176,1.3977,1.1717,0,0,9.7427,0,9.3877,1,1,1,1,0,0,0,0,0,1,0,0,1,1,0,1,Act1
7.5536,1.4661,1.0807,0,0,13.4606,0,7.6664,1,1,1,1,0,1,1,0,0,1,0,0,1,1,0,1,Act1
8.3478,1.0757,1.1781,0,0,0,4,8.7055,1,1,1,1,0,11,11,0,1,0,0,0,1,1,1,0,Act-1
8.3465,1.0925,1.1127,2,0,10.5493,0,14.4373,1,1,1,1,6,14,14,0,0,0,0,0,0,1,1,1,Act-1
7.8224,1.0976,0.9001,0,0,0,0,10.0162,0,1,1,1,0,0,0,0,0,0,0,0,1,0,0,0,Act1
8.4767,1.2562,1.1004,0,0,5.2358,0,9.9303,0,1,1,1,0,0,0,0,0,0,0,0,1,0,0,1,Act-1
9.2465,1.0426,0,0,0,0,0,0,0,0,0,0,0,0,0,0,0,0,1,1,0,0,0,0,Act-1
8.1705,1.363,1.0203,1,0,0,0,19.0987,0,1,1,1,0,0,0,0,0,0,0,0,0,0,1,0,Act-1
7.9603,1.2195,1.1238,0,0,6.9269,0,7.236,0,1,1,1,0,0,0,0,0,0,0,0,1,0,0,1,Act-1
8.9714,1.319,0.7117,0,0,6.8381,0,11.1668,1,1,1,1,0,1,1,0,0,0,0,0,0,0,0,1,Act1
8.5944,1.2382,0.3095,1,0,4.1062,1,4.436,0,1,1,0,0,0,0,0,0,0,0,0,0,0,1,0,Act-1
8.4107,1.2417,0.4671,1,0,6.3267,1,4.4703,0,1,1,0,0,0,0,0,0,0,0,0,0,0,1,0,Act-1
8.9799,1.3062,0.9598,0,0,6.0254,0,8.9941,1,1,1,1,0,0,0,0,0,0,0,1,0,0,0,1,Act-1
8.4769,1.1293,0.9984,0,0,0,1,1,1,1,1,0,0,0,0,0,1,1,0,0,1,1,1,0,Act1
8.6083,1.1499,0.6194,0,0,2.7951,0,1,1,1,1,0,1,0,0,1,0,0,0,1,0,1,0,0,Act-1
7.7323,1.5087,0.9463,0,0,16.1035,0,8.3897,1,1,1,1,0,0,0,0,0,0,0,0,0,1,0,1,Act1
8.3155,1.1018,0.7944,0,0,0,0,6.1356,0,1,1,1,0,0,0,0,0,0,0,0,0,0,0,0,Act-1
8.1667,1.0605,0.7748,0,0,0,0,6.3889,0,1,1,1,0,0,0,0,0,0,0,0,0,0,0,0,Act-1
8.2006,1.1039,0.8362,0,0,0,0,6.2995,0,1,1,1,0,0,0,0,0,0,0,0,0,0,0,0,Act1
8.0032,1.1054,0.8596,0,0,0,0,6.2172,0,1,1,1,0,0,0,0,0,0,0,0,0,0,0,0,Act1
8.25,1.2035,0.8658,0,0,4.4264,0,12.9087,0,1,1,1,0,0,0,0,0,0,1,1,0,0,0,0,Act-1
8.313,1.1052,0.7868,0,0,0,0,6.2172,0,1,1,1,0,0,0,0,0,0,1,1,0,0,0,0,Act-1
7.9647,1.0619,0.8537,0,0,0,0,6.2172,0,1,1,1,0,0,0,0,0,0,0,0,0,0,0,0,Act1
8.1944,1.0649,0.9399,0,0,0,0,9.9801,0,1,1,1,0,0,0,0,0,0,0,1,0,0,0,0,Act-1
8.2796,1.0633,0.7876,0,0,0,0,6.2172,0,1,1,1,0,0,0,0,0,0,1,1,0,0,0,0,Act-1
8.1944,1.1058,0.948,1,0,0,0,9.9801,0,1,1,1,0,0,0,0,0,0,0,0,0,0,0,0,Act-1
8.0545,1.1135,0.892,0,0,0,0,6.2172,0,1,1,1,0,0,0,0,0,0,0,0,0,0,0,0,Act-1
7.5806,1.0548,1.0302,0,0,0,0,12.2466,0,1,1,1,0,0,0,0,0,0,0,0,0,0,0,0,Act1
7.4417,1.0541,1.0007,0,0,0,0,13.0873,0,1,1,1,0,0,0,0,0,0,0,0,0,0,0,0,Act-1
7.5361,1.1464,0.9381,0,0,10.2028,0,13.0873,0,1,1,1,0,0,0,0,0,0,0,0,0,0,0,0,Act-1
7.5891,1.1196,0.9875,0,0,5.4122,0,11.2149,0,1,1,1,0,0,0,0,0,0,0,0,0,0,0,0,Act1
7.7103,1.1615,1.1334,0,0,5.8026,0,5.8469,0,1,1,1,0,0,0,0,0,0,0,0,0,0,0,0,Act1
7.5292,1.1644,1.1333,0,0,5.9553,0,6.0922,0,1,1,1,0,0,0,0,0,0,0,0,0,0,0,0,Act-1
7.4684,1.1479,1.0469,0,0,6.0012,0,12.5005,0,1,1,1,0,0,0,0,0,0,0,0,0,0,0,0,Act1
7.5958,1.1781,1.114,0,0,5.8977,0,6.0922,0,1,1,1,0,0,0,0,0,0,0,0,0,0,0,0,Act1
7.6715,1.1584,1.116,0,0,6.1315,0,10.4448,0,1,1,1,0,0,0,0,0,0,0,0,0,0,0,0,Act1
7.875,1.115,0.9138,0,0,0,0,7.1656,0,1,1,1,0,0,0,0,0,0,0,1,0,0,0,0,Act-1
7.6771,1.069,0.697,0,0,0,0,5.8326,1,1,1,1,0,0,0,0,0,0,0,0,0,0,0,0,Act1
7.1984,1,0.7379,0,0,0,0,6.3846,0,1,1,1,0,0,0,0,0,0,0,0,0,0,0,0,Act-1
7.5079,1.0686,0.806,0,0,0,0,6.0649,0,1,1,1,0,0,0,0,0,0,0,0,0,0,0,0,Act-1
7.9633,1.0811,0.7838,0,0,0,0,6.0649,0,1,1,1,0,0,0,0,0,0,1,1,0,0,0,0,Act1
7.5323,1.1439,0.8076,0,0,10.2054,0,13.0701,0,1,1,1,0,0,0,0,0,0,0,0,0,0,0,0,Act-1
7.5714,1.0722,0.7594,0,0,0,0,6.0649,0,1,1,1,0,0,0,0,0,0,0,0,0,0,0,0,Act1
7.4846,1.0572,0.9242,0,0,0,0,7.1497,0,1,1,1,0,0,0,0,0,0,0,0,0,0,0,0,Act1
8.473,1.1702,1.0278,0,0,1.1273,0,10.8116,0,1,1,1,0,1,1,0,0,0,0,0,0,0,0,0,Act-1
7.7101,1.133,1.0398,0,0,0,0,6.5435,0,1,1,1,0,0,0,0,0,0,0,0,0,0,0,0,Act1
7.4954,1.1817,0.5805,0,0,5.8704,0,5.6521,0,1,1,0,0,0,0,0,0,0,0,0,0,0,1,0,Act1
7.8447,1.3155,1.224,0,0,2.7675,0,6.4216,1,1,1,0,0,0,0,0,0,0,0,0,0,1,0,1,Act1
8.93,1.3233,0.9737,0,0,4.308,0,6.3053,0,1,0,1,0,0,0,0,0,1,0,0,1,1,0,1,Act1
8.572,1.3994,1.0614,0,0,3.721,0,11.3679,1,1,1,1,2,1,1,0,0,1,0,0,0,1,1,1,Act1
7.8922,1.5104,1.0265,0,0,9.8185,0,8.2342,1,1,1,1,0,0,0,0,0,1,0,0,1,1,0,1,Act1
8.1929,1.2987,0.8361,0,0,10.1892,0,13.1053,0,1,1,1,0,0,0,0,0,0,0,0,0,1,1,1,Act1
7.7083,1.0077,0.8177,0,0,0,0,8.2816,0,1,1,1,0,0,0,0,0,0,0,1,0,0,0,0,Act1
7.6726,1.0078,0.8606,1,0,0,0,8.2289,0,1,1,1,0,0,0,0,0,0,0,0,0,0,0,0,Act1
7.9368,1.0326,0.8701,1,0,0,0,8.4229,0,1,1,1,0,0,0,0,0,0,0,0,0,0,0,0,Act-1
7.7989,1.0075,0.8402,1,0,0,0,8.4229,0,1,1,1,0,0,0,0,0,0,0,0,0,0,0,0,Act1
8.4042,1.1904,1.359,0,0,4.4751,0,8.391,0,1,0,1,0,0,0,0,0,0,0,0,0,0,0,0,Act-1
7.7599,1.5005,0.9008,0,0,23.9169,0,15.4966,1,1,1,1,0,2,2,0,0,1,0,0,1,1,0,1,Act-1
8.3016,1.0457,0.2923,1,0,0,0,3,0,0,0,0,0,0,0,0,0,0,0,0,0,0,0,0,Act-1
8.3974,1.2378,0.1636,0,0,4.1277,1,4.7451,0,1,1,0,0,0,0,0,0,0,0,0,0,0,1,0,Act-1
8.1667,1.2437,0,0,0,6.4677,0,5.2412,0,1,0,0,0,0,0,0,0,0,0,0,0,0,1,0,Act1
8.4167,1.294,1.07,1,0,3.4674,0,12.4582,1,1,1,1,0,1,1,0,0,1,0,0,1,1,1,1,Act1
8.2067,1.161,1.1527,2,0,9.5324,0,10.491,0,1,1,1,0,0,0,0,0,0,0,0,0,0,0,0,Act-1
8.0303,1.3475,1.0134,0,0,13.8025,0,9.9648,0,1,1,1,0,0,0,0,0,0,0,0,0,0,1,1,Act-1
7.9206,1.3122,0.8449,0,0,13.6984,0,9.3812,0,1,1,1,0,0,0,0,0,0,0,0,0,0,0,1,Act1
8.3039,1.1314,0.6636,0,0,0,0,0,1,1,1,1,0,0,0,0,0,1,0,0,0,1,1,0,Act-1
8.4632,1.208,1.372,0,0,0,0,3.5446,1,1,1,1,0,0,0,0,0,0,0,0,0,0,0,0,Act-1
7.8407,1.4087,0.9961,0,0,9.9629,2,10.6246,0,1,1,1,0,1,1,0,0,1,0,0,1,1,1,1,Act-1
8.1253,1.5369,1.0557,1,0,29.0139,0,14.5163,1,1,1,1,0,4,4,0,0,0,0,0,1,1,1,1,Act1
8.7024,1.1733,1.2832,1,0,1.3625,0,3.7798,1,1,1,1,0,1,1,1,0,0,1,0,0,1,1,0,Act-1
7.7645,1.1384,0.7831,0,0,0,0,8.7204,0,1,1,1,0,0,0,0,0,0,0,0,0,0,0,0,Act1
7.7903,1.2266,0.8878,0,0,9.1477,0,12.8769,1,1,1,1,1,0,0,0,0,0,0,0,0,0,0,1,Act1
7.677,1.2822,0.8964,0,0,13.8072,0,12.0191,1,1,1,1,0,1,1,0,0,0,0,0,0,1,0,1,Act1
8.7024,1.1733,1.2832,1,0,1.3625,0,3.7798,1,1,1,1,0,1,1,1,0,0,1,0,0,1,1,0,Act-1
8.0804,1.3147,1.0758,0,0,17.3638,0,15.3214,1,1,1,1,0,3,3,0,0,0,0,0,0,0,0,1,Act1
7.8333,1.2026,0.9889,0,0,9.9699,0,11.1024,1,1,1,1,0,0,0,0,0,0,0,0,0,0,0,0,Act1
8.0714,1.2893,1.0281,0,0,0,0,12.0728,1,1,1,1,0,0,0,0,0,0,0,0,0,0,1,0,Act1
8.0114,1.2789,1.0953,0,0,0,0,9.9199,1,1,1,1,0,0,0,0,0,0,0,0,0,0,1,0,Act1
7.4357,1.055,0.8805,0,0,0,0,10.3951,0,1,1,1,0,0,0,0,0,0,0,0,0,0,0,0,Act1
8.1691,1.1045,0.8436,1,0,0,0,9.8872,0,1,1,1,0,0,0,0,0,0,0,0,0,0,0,0,Act-1
8.0337,1.1018,0.9369,0,0,0,0,6.7612,0,1,1,1,0,0,0,0,0,0,0,0,0,0,0,0,Act1
8.0278,1.1111,0.977,0,0,0,0,6.7632,0,1,1,1,0,0,0,0,0,0,0,0,0,0,0,0,Act1
8.0741,1.1705,0.9183,0,0,8.3294,0,11.4223,0,1,1,1,0,0,0,0,0,0,0,0,0,0,0,0,Act-1
8.4245,1.259,0.9209,0,0,4.438,1,7.2251,1,1,1,1,0,0,0,0,0,0,0,0,0,0,1,0,Act-1
7.5833,1.3839,0.9622,0,0,7.9755,1,13.7857,0,1,1,1,0,3,3,0,0,1,0,0,1,1,1,1,Act1
7.847,1.0349,0.9442,0,0,0,0,12.2079,0,1,1,1,0,0,0,0,0,0,0,0,0,0,0,0,Act-1
8.1578,1.2994,1.0164,1,0,0,0,13.4883,0,1,1,1,0,0,0,0,0,0,0,0,0,0,1,0,Act-1
7.819,1.1513,0.8595,0,0,1.9887,0,12.321,0,1,1,1,0,0,0,0,0,0,0,0,0,0,0,0,Act-1
7.47,1.2311,1.0195,0,0,17.4914,0,10.1545,1,1,1,1,0,0,0,0,0,0,0,0,0,0,0,1,Act-1
8.1528,1.199,1.0455,0,0,4.0389,1,8.6892,0,1,0,1,0,0,0,0,0,0,0,1,0,0,1,0,Act-1
8.0435,1.2648,0.9539,0,0,2.5657,0,7.6053,0,1,1,1,0,0,0,0,0,0,0,0,0,0,0,0,Act1
8.0833,1.3828,1.0419,0,0,12.5017,0,11.4387,0,1,1,1,0,0,0,0,1,1,0,0,1,1,0,1,Act1
7.8951,1.3799,1.0424,0,0,15.3269,0,11.51,0,1,1,1,0,0,0,0,1,1,0,0,1,1,0,1,Act1
7.7011,1.4749,0.9903,0,0,14.8495,0,11.4326,0,1,1,1,0,2,2,0,0,1,0,0,1,1,0,1,Act1
7.7011,1.4749,0.9438,0,0,14.9026,0,11.9647,1,1,1,1,0,1,1,0,0,1,0,0,1,1,0,1,Act1
7.879,1.2355,0.9151,1,0,17.3332,0,12.049,0,1,1,1,0,0,0,0,0,0,0,0,1,1,0,1,Act1
8.4107,1.2295,0.8444,1,0,0,0,3.9057,0,1,1,1,0,0,0,0,0,0,0,0,1,1,0,0,Act-1
8.0929,1.1729,1.0071,1,0,5.0816,0,12.6132,1,1,1,1,1,1,1,0,0,0,0,0,0,1,1,0,Act-1
8.0644,1.3455,1.2367,0,0,7.2781,0,6.3998,1,1,0,1,0,1,1,0,0,0,0,1,0,1,0,1,Act-1
8.279,1.2455,0.8108,1,0,1.091,1,5.681,0,1,1,1,0,0,0,0,0,0,0,0,1,0,1,0,Act-1
8.1828,1.347,1.2225,1,0,8.8188,0,9.2412,0,1,1,1,0,0,0,0,0,0,0,0,1,0,0,1,Act1
8.8137,1.0921,1.1917,0,0,0,0,0,1,1,1,0,0,0,0,0,1,0,0,0,1,1,0,0,Act-1
7.8379,1.027,0.8817,0,0,0,0,16.6839,0,1,1,1,0,0,0,0,0,0,0,0,1,0,0,0,Act1
7.7731,1.0278,0.8898,0,0,0,0,16.4394,0,1,1,1,0,0,0,0,0,0,0,0,1,0,0,0,Act-1
7.9508,1.0248,0.8871,0,0,0,0,16.6839,0,1,1,1,0,0,0,0,0,0,0,0,1,0,0,0,Act-1
7.2115,1,0,0,0,0,0,4.7451,0,1,0,0,0,0,0,0,0,0,0,0,0,0,0,0,Act-1
8.5341,1.0297,0.9436,0,0,0,0,3,1,1,1,1,0,0,0,0,0,0,0,0,0,0,0,0,Act-1
7.2121,1.2211,1.2131,0,0,13.4133,0,8.0324,0,1,0,1,0,0,0,0,0,0,0,1,0,0,0,1,Act-1
8.2469,1,0,0,0,0,0,1,0,0,0,0,0,0,0,0,0,0,0,1,0,0,0,0,Act-1
7.1111,1,0.8054,0,0,0,0,5.6661,0,1,0,1,0,0,0,0,0,0,0,1,0,0,0,0,Act1
8.4583,1.048,0,1,0,0,0,0,0,0,0,0,0,0,0,0,0,0,0,1,0,0,0,0,Act-1
8.4545,1.0331,0,1,0,0,0,0,1,0,0,0,0,0,0,0,0,0,0,1,0,0,0,0,Act-1
7.2143,1,1.317,0,0,0,1,2.7495,0,1,0,0,0,0,0,0,0,0,0,1,0,0,0,0,Act1
7.1667,1,0.9722,0,0,0,0,6.1051,0,1,0,1,0,0,0,0,0,0,0,1,0,0,0,0,Act1
7.8571,1,0,0,0,0,0,0,0,0,0,0,0,0,0,0,0,0,0,1,0,0,0,0,Act-1
8.1667,1.037,0,0,0,0,0,0,1,0,0,0,0,0,0,0,0,0,0,1,0,0,1,0,Act-1
8.5735,1.111,1.6012,0,0,0,4,0,1,1,1,1,0,0,0,0,1,1,1,1,1,1,1,0,Act-1
8.2083,1.338,1.1162,0,0,5.5365,2,6.4958,1,1,1,1,0,0,0,0,0,0,0,1,0,0,0,1,Act1
7.9493,1.1256,1.0513,0,0,9.1376,0,7.0687,0,1,1,1,0,0,0,0,0,0,0,1,0,0,0,0,Act-1
7.7319,1.1256,1.0336,0,0,9.355,0,7.0687,0,1,1,1,0,0,0,0,0,0,0,1,0,0,0,0,Act1
7.6955,1.123,1.1168,0,0,11.0073,1,5.4462,0,1,1,1,0,0,0,0,0,0,0,1,0,0,0,1,Act-1
7.6894,1.1396,1.0528,0,0,9.4025,0,8.847,0,1,1,1,0,0,0,0,0,0,0,1,0,0,0,0,Act-1
7.3175,1.3074,1.0814,0,0,21.712,0,6.633,0,1,0,1,0,0,0,0,0,0,0,1,0,0,0,1,Act1
7.663,1.1399,1.0624,0,0,9.3329,0,7.1589,1,1,1,1,0,0,0,0,0,0,0,1,0,0,0,0,Act-1
7.7233,1.2354,1.095,0,0,18.0276,0,8.297,1,1,1,1,0,0,0,0,0,0,0,1,0,0,0,1,Act-1
7.6955,1.2296,1.0626,0,0,18.0304,0,10.2627,1,1,1,1,0,0,0,0,0,0,0,1,0,0,0,1,Act-1
7.3587,1.1302,0.9674,0,0,10.432,0,7.0059,0,1,1,1,0,0,0,0,0,0,0,1,0,0,0,0,Act-1
7.0303,1.2435,1.226,0,0,13.0993,0,5.1723,0,1,1,1,0,0,0,0,0,0,0,1,0,0,0,1,Act-1
7.6859,1.1541,0.8318,0,0,3.6786,1,7.4416,1,1,1,1,0,0,0,0,0,0,0,1,0,0,0,0,Act-1
7.3767,1.2043,1.1018,0,0,20.7041,0,10.2727,0,1,1,1,0,0,0,0,0,0,0,1,1,0,0,1,Act1
7.6577,1.4554,0.9624,0,0,16.4335,2,14.0337,1,1,1,1,0,0,0,0,0,0,0,1,0,0,0,1,Act-1
8.0365,1.1468,1.0854,1,0,1.5659,0,6.5975,1,1,1,1,1,1,1,1,0,0,0,1,0,1,1,0,Act-1
7.5833,1.5688,1.0272,0,0,14.4838,0,6.0275,1,1,1,1,0,0,0,0,0,0,0,1,0,0,0,1,Act1
7.4265,1.4857,1.0696,0,0,27.6161,0,5.6366,0,1,0,0,0,0,0,0,0,0,0,1,0,1,1,1,Act-1
7.1667,1.4765,1.047,0,1,16.4401,0,8.5348,0,1,0,1,1,0,0,0,0,0,0,1,1,1,0,1,Act-1
7.6699,1.1988,1.1156,0,0,18.1746,0,8.4952,1,1,1,1,0,0,0,0,0,0,0,1,0,0,0,1,Act-1
7.6176,1.5329,1.0559,0,0,14.0529,0,5.6366,0,1,0,0,0,0,0,0,0,0,0,1,0,1,1,1,Act-1
7.9667,1.3313,0,0,0,7.5441,0,1.8899,0,0,0,0,0,0,0,0,0,0,0,1,0,0,0,0,Act-1
7.3095,1.401,0.9991,0,0,17.7902,0,6.0594,0,1,0,1,0,0,0,0,0,0,0,1,0,0,0,1,Act1
7.8021,1.3229,1.3407,0,0,12.3218,0,6.268,1,1,0,1,0,0,0,0,0,0,0,1,1,0,0,1,Act-1
7.3914,1.3455,0.9938,0,0,15.1083,0,6.9158,0,1,0,1,0,0,0,0,0,0,0,1,0,1,0,1,Act-1
7.4259,1.3515,1.0728,0,0,14.8043,0,6.9909,0,1,0,1,1,0,0,0,0,0,0,1,0,1,0,1,Act-1
7.3333,1.3571,1.0557,0,0,17.4452,0,6.4522,0,1,0,1,1,0,0,0,0,0,0,1,0,1,0,1,Act-1
7.2659,1.153,1.1866,0,0,10.897,0,7.4757,0,1,0,1,0,0,0,0,0,0,0,1,0,0,0,0,Act-1
7.5139,1.3152,1.0795,0,0,15.8804,0,8.6133,0,1,0,1,0,0,0,0,0,1,0,1,0,0,0,1,Act-1
7.4074,1.2844,1.1462,0,0,14.3693,0,5.6788,0,1,0,1,1,0,0,0,0,1,0,1,0,0,0,1,Act-1
7.4386,1.3189,1.1737,0,0,20.8205,0,7.0059,0,1,0,1,0,0,0,0,0,0,0,1,0,0,0,1,Act-1
7.3981,1.194,0.9726,0,0,4.154,0,8.5403,0,1,0,1,0,0,0,0,0,0,0,1,0,1,1,0,Act-1
7.7063,1.1445,1.0708,0,0,9.3937,0,8.847,0,1,1,1,0,0,0,0,0,0,0,1,0,0,0,0,Act-1
7.6795,1.318,0.6915,0,0,7.6875,1,6.5523,1,1,1,1,0,0,0,0,0,0,0,1,0,0,0,1,Act-1
7.4686,1.382,0.924,0,0,14.1908,0,7.4538,0,1,0,1,0,0,0,0,0,1,0,1,1,1,0,1,Act-1
7.7564,1.3257,1.0595,0,0,12.3185,0,6.3233,1,1,1,1,0,1,1,0,0,1,0,1,0,1,0,1,Act-1
7.9137,1.3113,1.2432,0,0,12.068,1,6.4522,0,1,0,1,1,0,0,0,0,0,0,1,0,1,0,1,Act-1
7.3578,1.3207,0.9672,0,0,14.9459,1,6.9909,0,1,0,1,1,0,0,0,0,0,0,1,0,1,0,1,Act-1
7.4206,1.4403,1.1698,0,0,21.0138,0,8.1052,0,1,0,1,0,0,0,0,0,0,0,1,0,0,1,1,Act-1
7.3167,1.402,0.9539,0,0,17.7475,0,6.0594,0,1,0,1,0,0,0,0,0,0,0,1,0,0,1,1,Act-1
7.7121,1.2536,0.5384,0,0,7.3687,1,2.96,0,1,0,0,0,0,0,0,0,0,0,1,0,0,1,0,Act-1
7.3083,1.3554,0.9329,0,0,17.7337,0,6.4497,0,1,0,1,0,0,0,0,0,0,0,1,0,1,1,1,Act-1
8.5722,1.2035,1.0787,0,0,5.3778,1,5.681,1,1,1,1,0,0,0,0,0,0,0,1,0,0,1,0,Act-1
8.1286,1.4601,0.7869,0,0,16.1132,0,10.1651,0,1,1,1,0,0,0,0,0,0,0,1,1,0,0,1,Act1
8.0871,1.3755,1.0318,0,0,15.806,1,7.1752,0,1,1,1,0,0,0,0,0,0,0,1,1,0,0,1,Act-1
8.2315,1.2618,0.9884,0,0,4.7905,1,9.1255,0,1,1,1,0,0,0,0,0,0,0,1,1,1,1,1,Act1
8.2917,1.3763,1.1198,0,0,11.3719,1,6.4839,0,1,1,1,0,0,0,0,0,0,0,1,0,0,0,1,Act1
7.9599,1.4214,1.0008,0,1,13.983,1,6.6226,0,1,1,1,0,0,0,0,0,1,0,1,1,0,0,1,Act1
8.1167,1.4685,0.8818,0,1,13.6125,1,9.4806,0,1,1,1,0,0,0,0,0,1,0,1,1,0,0,1,Act1
7.9684,1.5116,0.9626,0,1,20.8651,1,10.2437,0,1,1,1,0,0,0,0,0,1,0,1,1,1,0,1,Act1
7.9969,1.4214,1.0317,0,1,11.3922,1,2.8717,0,1,1,1,0,0,0,0,0,1,0,1,1,1,0,1,Act-1
8.1567,1.4685,0.9414,0,1,11.0632,1,6.3233,0,1,1,1,0,0,0,0,0,1,0,1,1,1,0,1,Act-1
8.1872,1.2853,0.9769,1,1,2.7327,4,0,1,1,1,1,0,1,1,0,0,1,0,1,1,1,1,1,Act-1
8.4167,1.0419,0,1,0,0,0,0,0,0,0,0,0,0,0,0,0,0,0,0,0,0,1,0,Act-1
7.4295,1,0,0,0,0,0,0,0,1,0,0,0,0,0,0,0,0,0,0,0,0,0,0,Act1
7.6159,1.2412,0.6397,0,0,3.6626,0,10.8683,0,1,1,1,0,0,0,0,0,0,0,0,1,0,0,0,Act1
8.5333,1.0622,0,2,0,0,0,3.7545,1,0,0,0,0,0,0,0,0,0,0,0,0,0,0,0,Act-1
8,1.2526,0.7857,1,0,7.439,0,8.2496,0,1,0,1,0,0,0,0,0,0,0,0,0,0,0,0,Act1
8.155,1.4232,1.0521,0,0,6.602,0,16.2605,1,1,1,1,5,19,19,0,0,0,0,0,1,1,1,1,Act-1
7.9907,1.1708,1.2935,0,0,0,0,12.2308,0,1,1,1,0,0,0,0,0,0,0,0,0,0,0,0,Act-1
7.7951,1.1517,1.2142,0,0,0,0,12.5778,0,1,1,1,0,0,0,0,0,0,0,0,0,0,0,0,Act-1
8.0479,1.2623,0.8608,0,0,6.633,1,14.0427,1,1,1,1,0,1,1,0,0,0,0,1,0,0,0,1,Act1
7.9306,1.2671,0.8495,0,0,5.4255,1,15.5347,1,1,1,1,0,2,2,0,0,0,0,1,0,0,0,1,Act-1
7.5856,1.0161,0.8263,0,0,0,0,11.48,0,1,1,1,0,0,0,0,0,0,0,0,0,0,0,0,Act1
7.6495,1.0223,0.8527,0,0,0,0,10.6262,0,1,1,1,1,0,0,0,0,0,0,0,0,0,0,0,Act-1
7.6609,1.3045,1.0241,0,0,9.498,0,10.3674,1,1,1,1,0,0,0,0,0,0,0,0,0,0,0,1,Act-1
7.5625,1.3195,0.9812,0,0,9.5681,0,9.8592,1,1,1,1,0,0,0,0,0,0,0,0,0,0,0,1,Act1
7.5808,1.2494,1.1458,0,0,0,0,13.667,0,1,1,1,0,0,0,0,0,0,0,0,0,0,0,0,Act1
7.5694,1.1978,1.0496,0,0,0,0,11.776,0,1,1,1,0,0,0,0,0,0,0,0,0,0,0,0,Act1
7.5694,1.1546,1.0466,0,0,0,0,11.7609,0,1,1,1,0,0,0,0,0,0,0,0,0,0,0,0,Act1
7.6714,1.1521,1.0166,0,0,0,0,12.3838,0,1,1,1,0,0,0,0,0,0,0,0,0,0,0,0,Act-1
7.5722,1.1546,1.0291,0,0,0,0,11.5757,0,1,1,1,0,0,0,0,0,0,0,0,0,0,0,0,Act1
8.1917,1.2311,0.9438,0,1,1.4808,0,2.7495,1,1,1,0,0,0,0,0,0,1,0,0,1,1,1,0,Act-1
7.6806,1.089,0.1768,0,0,0,0,6.3201,0,1,1,0,0,0,0,0,0,0,0,0,0,0,0,0,Act1
7.4694,1.1948,1.1092,0,0,0,0,12.2274,0,1,1,1,0,0,0,0,0,0,0,0,0,0,0,0,Act-1
7.6667,1.1262,0.6093,0,0,0,0,6.1212,0,1,1,1,0,0,0,0,0,0,0,0,0,0,0,0,Act1
7.6106,1.0095,0.9919,0,0,0,0,12.3646,1,1,1,1,0,0,0,0,0,0,0,0,0,0,1,0,Act-1
7.8017,1.1225,0.9059,0,0,0,0,7.9721,0,1,1,1,0,0,0,0,0,0,0,0,0,0,0,0,Act-1
8.4907,1.2637,0.9487,0,0,2.4818,1,7.2795,1,1,1,1,0,0,0,0,0,0,0,0,0,0,1,0,Act-1
7.3362,1.1955,1.0946,0,0,0,0,12.3616,0,1,1,1,0,0,0,0,0,0,0,0,0,0,0,0,Act-1
7.5722,1.1531,1.0296,0,0,0,0,11.6105,0,1,1,1,0,0,0,0,0,0,0,0,0,0,0,0,Act-1
7.3006,1.1566,1.0157,0,0,0,0,12.1674,0,1,1,1,0,0,0,0,0,0,0,0,0,0,0,0,Act-1
8.2204,1.11,0.9071,0,0,0,0,8.7418,0,1,1,1,0,0,0,0,0,0,0,0,0,0,0,0,Act1
8.05,1.2246,1.0704,0,0,6.0943,0,8.3733,1,1,1,1,0,0,0,0,0,0,0,0,0,1,0,1,Act-1
7.7172,1.498,0.9088,0,0,18.7773,1,14.7847,1,1,1,1,0,0,0,0,0,1,0,0,1,1,1,1,Act1
7.6667,1.5385,1.0006,0,0,17.6222,0,13.765,1,1,1,1,0,0,0,0,0,0,0,0,1,1,0,1,Act1
8.6111,1.0821,0,1,0,0,0,3.7798,1,0,0,0,0,0,0,0,0,0,0,0,0,0,1,0,Act-1
7.6014,1.1771,1.0242,0,0,0,0,7.903,0,1,1,1,0,0,0,0,0,0,0,0,0,0,0,0,Act1
7.2955,1.0529,0.9905,0,0,0,0,8.3666,0,1,1,1,0,0,0,0,0,0,0,0,0,0,0,0,Act1
7.3967,1.2826,0.9997,0,0,18.8157,0,11.5196,1,1,1,1,0,0,0,0,0,0,0,1,0,1,0,1,Act-1
7.4298,1.0089,0.9009,0,0,0,0,9.6108,1,1,1,1,0,1,1,0,0,0,0,1,1,0,0,0,Act1
8.0162,1.0259,1.1096,0,0,0,0,8.4894,0,1,1,1,0,0,0,0,0,0,0,0,0,0,0,0,Act-1
8.4103,1.1795,1.0562,1,0,1.4403,0,7.5786,1,1,1,1,1,1,1,1,0,0,0,0,0,1,1,0,Act-1
8.4778,1.1811,1.1401,2,0,1.4204,0,7.5786,1,1,1,1,1,1,1,1,0,0,0,0,0,1,1,0,Act-1
8.4778,1.1811,1.1401,2,0,1.4204,0,7.5786,1,1,1,1,1,1,1,1,0,0,0,0,0,1,1,0,Act-1
8.4103,1.1795,1.0562,1,0,1.4403,0,7.5786,1,1,1,1,1,1,1,1,0,0,0,0,0,1,1,0,Act-1
8.4778,1.1811,1.1401,2,0,1.4204,0,7.5786,1,1,1,1,1,1,1,1,0,0,0,0,0,1,1,0,Act-1
7.6458,1.247,0.9376,0,0,15.3283,0,16.7984,1,1,1,1,0,1,1,0,0,1,0,0,1,0,0,1,Act1
7.9048,1.6352,1.1479,0,0,7.7788,0,10.948,0,1,1,1,0,0,0,0,0,0,0,1,0,1,0,1,Act1
8.1603,1.5902,1.0984,4,0,5.579,0,11.589,1,1,1,1,0,2,2,0,0,0,0,0,0,1,0,1,Act-1
7.923,1.6141,1.138,1,0,7.5911,0,11.0689,1,1,1,1,0,0,0,0,0,0,0,0,0,1,0,1,Act1
7.5486,1.3195,0.9794,0,0,9.612,1,9.8592,1,1,1,1,0,0,0,0,0,0,0,1,0,0,0,1,Act-1
7.5833,1.3392,0,0,0,10.0288,0,4.1689,0,0,0,0,0,0,0,0,0,0,0,0,0,0,0,0,Act-1
7.9722,1.4204,0.8083,0,0,15.2191,0,12.0794,0,1,1,1,1,0,0,0,0,0,0,0,0,0,0,1,Act1
7.9167,1.277,0.9833,0,0,5.272,0,4.3952,0,1,1,0,0,0,0,0,0,0,0,0,0,0,0,0,Act-1
7.6944,1.2365,0.9395,0,0,7.8336,0,8.8707,0,1,1,1,0,0,0,0,0,0,0,0,0,0,0,0,Act-1
7.9359,1.0532,0.8956,1,0,0,0,7.7667,0,1,1,1,0,0,0,0,0,0,0,0,0,0,0,0,Act1
7.5101,1.1009,0.9057,0,0,0,0,16.2192,0,1,1,1,0,0,0,0,0,0,0,0,0,0,0,0,Act-1
7.5679,1.2044,0.6338,0,0,5.8145,0,8.2999,0,1,0,1,0,0,0,0,0,0,0,0,1,0,0,0,Act-1
7.6212,1.2648,0.9119,0,0,8.5758,0,10.5206,0,1,1,1,0,0,0,0,1,0,0,0,0,1,0,1,Act1
7.8333,1.169,0.6996,0,0,3.5648,0,7.2087,1,1,1,1,0,0,0,0,0,0,0,0,0,0,0,0,Act-1
7.4008,1.1726,0.7955,0,0,6.112,0,7.2238,0,1,1,1,0,0,0,0,0,0,0,0,0,0,0,0,Act-1
8.119,1.11,0,0,0,0,0,1,0,0,0,0,0,0,0,0,0,0,0,0,0,0,1,0,Act-1
8.0238,1.3352,1.0171,0,0,1.2808,0,12.0728,1,1,1,1,0,0,0,0,0,0,0,0,0,0,1,0,Act-1
7.7661,1.2994,1.0004,0,1,10.767,0,7.7447,1,1,0,1,0,0,0,0,0,0,0,0,0,0,0,1,Act1
7.7989,1.2338,0.9917,0,0,4.9995,0,10.5242,1,1,1,1,0,0,0,0,0,0,0,0,0,0,0,0,Act1
7.7632,1.2322,1.1184,0,0,7.3983,0,10.8586,0,1,1,1,0,0,0,0,0,0,0,0,0,0,0,0,Act-1
8.0222,1.2925,0.9388,1,0,0,0,6.5482,0,1,1,1,0,0,0,0,0,0,0,0,0,0,0,0,Act-1
7.4206,1.401,1.0601,0,0,16.8547,0,6.4166,0,1,0,1,0,0,0,0,0,0,0,0,0,0,0,1,Act-1
7.4831,1.382,0.8958,0,0,14.1568,0,7.4538,0,1,0,1,0,0,0,0,0,1,0,0,1,1,0,1,Act-1
7.7168,1.2705,0.9,0,1,18.5626,0,11.4293,1,1,1,1,0,0,0,0,0,0,0,0,1,0,0,1,Act-1
8.2821,1.2185,0,0,1,1.3944,0,0,1,0,0,0,0,0,0,0,1,1,0,0,0,1,0,0,Act-1
8.1889,1.1444,0.9676,0,0,0,0,1,1,1,1,0,1,0,0,0,1,1,0,0,1,1,1,0,Act-1
8.466,1.2739,1.0101,0,0,4.6903,0,7.4823,1,1,1,1,0,0,0,0,0,0,0,0,0,0,1,0,Act-1
8.5792,1.2197,0.5167,0,0,3.5155,1,4.5032,1,1,1,0,0,0,0,0,1,0,0,0,0,0,1,0,Act-1
8.4111,1.2434,0.6294,1,0,3.2835,1,3.7545,0,1,1,0,0,0,0,0,0,0,0,0,0,0,1,0,Act-1
8.2164,1.3728,0.7186,0,0,5.9067,0,3.909,0,1,1,1,0,0,0,0,0,0,0,0,0,0,0,1,Act1
8.4792,1.2278,1.2584,0,0,3.9233,0,2.8717,0,1,1,1,0,0,0,0,0,0,0,0,0,0,0,0,Act-1
8.9792,1.3324,1.2211,0,0,2.3981,1,1,0,1,1,0,0,1,1,0,0,0,0,0,0,1,1,0,Act1
8.0764,1.4001,0.8109,0,0,5.1341,0,3.7044,0,1,0,0,0,0,0,0,0,1,0,0,1,1,1,1,Act1
8.0744,1.414,0.8395,0,0,14.6237,0,10.239,0,1,1,1,1,0,0,0,0,0,0,0,0,0,0,1,Act1
8.6019,1.4508,0.7279,0,0,8.2315,0,7.3782,1,1,1,1,0,1,1,0,0,0,0,0,0,1,1,1,Act-1
8.4613,1.4608,0.8252,0,0,8.7782,0,5.5595,0,1,1,1,1,1,1,0,0,0,0,0,0,1,1,1,Act1
8.23,1.414,0.9637,0,0,13.5408,0,9.8365,0,1,1,1,1,0,0,0,0,0,0,0,0,0,0,1,Act-1
8.07,1.414,0.926,0,0,14.6546,0,9.8365,0,1,1,1,1,0,0,0,0,0,0,0,0,0,1,1,Act-1
8.1571,1.5623,1.029,0,0,13.3979,0,12.3325,1,1,1,1,0,0,0,0,0,0,0,0,1,0,0,1,Act-1
7.6345,1.2707,0.9702,0,1,15.0505,0,13.8757,0,1,0,1,0,0,0,0,0,1,0,0,0,1,0,1,Act1
8.1429,1.4883,1.0116,0,0,13.672,0,7.3335,0,1,0,1,0,0,0,0,0,1,0,0,1,1,0,1,Act1
8.1429,1.4883,1.091,0,0,13.8402,0,5.6502,0,1,0,1,0,0,0,0,0,0,0,0,1,1,0,1,Act1
8.1458,1.338,1.0988,0,0,5.7412,0,6.4958,1,1,1,1,0,0,0,0,0,0,0,0,0,0,0,1,Act1
8.4599,1.4771,0.7893,0,0,14.8531,0,8.9631,1,1,1,1,0,0,0,0,0,1,0,0,1,1,1,1,Act1
7.8246,1.5041,0.8268,0,1,15.9117,0,5.6502,0,1,0,1,0,0,0,0,0,1,0,0,1,1,0,1,Act1
7.6004,1.6453,0.9967,0,0,25.6289,0,16.6908,0,1,1,1,0,1,1,0,0,1,0,0,1,1,0,1,Act1
7.8093,1.5987,0.9053,0,0,22.926,0,14.977,1,1,1,1,0,0,0,0,0,0,0,0,1,1,0,1,Act1
7.9456,1.4082,0.8365,0,0,17.362,0,9.9981,0,1,1,1,1,0,0,0,0,0,0,1,0,0,0,1,Act1
7.9933,1.5588,1.0313,0,1,18.3875,2,8.3093,0,1,0,1,0,0,0,0,0,1,0,0,1,1,1,1,Act1
7.8438,1.5799,1.0851,0,2,22.225,0,11.237,0,1,1,1,0,0,0,0,0,1,0,0,1,1,0,1,Act-1
7.8131,1.5742,1.0057,0,2,24.3384,0,11.237,0,1,1,1,0,0,0,0,0,1,0,0,1,1,0,1,Act1
7.9598,1.5377,1.0646,0,1,18.6513,0,11.237,0,1,1,1,0,0,0,0,0,1,0,0,1,1,0,1,Act1
8.075,1.4175,0.9856,0,0,12.8043,0,10.0707,0,1,1,1,0,0,0,0,0,0,0,0,1,1,0,1,Act1
7.95,1.4972,1.2943,0,0,15.1642,0,8.175,0,1,1,1,0,0,0,0,0,0,0,0,0,0,0,1,Act1
8.2161,1.5486,1.3116,0,0,16.9748,0,9.6045,0,1,1,1,0,2,2,0,0,1,0,0,1,1,1,1,Act1
8.1418,1.5049,0.9152,0,0,18.1151,0,12.052,1,1,1,1,0,0,0,0,1,0,0,0,1,1,0,1,Act-1
8.5104,1.4021,0.907,0,0,11.826,0,10.0707,0,1,1,1,0,0,0,0,0,0,0,0,1,1,0,1,Act-1
8.4688,1.5175,1.1021,0,0,13.7044,0,10.7859,0,1,1,1,0,0,0,0,0,1,0,0,0,1,0,1,Act1
8.3778,1.5168,0.9416,0,0,18.7928,0,10.7775,1,1,1,1,0,0,0,0,0,0,0,0,1,0,0,1,Act1
8.112,1.5867,1.3677,1,0,16.5303,0,15.9207,0,1,1,1,0,0,0,0,0,0,0,0,1,0,0,1,Act1
8.1078,1.4721,1.1959,0,0,11.1184,0,6.8952,0,1,1,1,0,0,0,0,0,0,0,0,0,0,0,1,Act-1
8.1556,1.292,0.9125,0,0,18.0229,0,10.4885,0,1,1,1,0,0,0,1,0,0,0,0,1,0,0,1,Act-1
8.7111,1.238,0.7729,0,0,5.0778,0,5.681,0,1,1,1,0,0,0,0,0,0,0,0,0,0,0,0,Act-1
8.0819,1.2153,1.1031,1,0,7.6321,1,6.5427,0,1,1,1,0,0,0,0,0,0,0,0,0,0,1,0,Act1
8.4286,1.3847,1.1285,0,0,7.8196,0,7.1292,0,1,1,1,0,0,0,0,0,0,0,0,1,0,0,1,Act1
8.5859,1.3222,1.0799,1,0,6.6753,0,5.8483,0,1,1,1,0,0,0,0,0,0,0,0,1,0,0,1,Act-1
8.1404,1.4097,1.0946,0,0,10.6854,0,6.7512,0,1,1,1,0,0,0,0,0,0,0,0,1,0,0,1,Act-1
8.3047,1.5447,0.8098,0,0,15.6182,0,13.1147,1,1,1,1,0,0,0,0,0,0,0,0,1,1,0,1,Act1
8.0446,1.5004,0.6954,0,0,17.549,0,11.2889,0,1,1,1,1,0,0,0,0,0,0,0,1,0,0,1,Act-1
8.2121,1.474,1.0722,0,0,13.395,0,6.5467,0,1,1,1,0,0,0,0,0,1,0,0,1,1,0,1,Act-1
8.2556,1.3731,1.0564,0,0,10.8632,0,8.2484,1,1,1,1,0,0,0,0,0,0,0,0,0,0,0,1,Act-1
8.0802,1.4113,1.0505,0,1,9.5926,0,2.8717,1,1,1,1,0,0,0,0,0,1,0,0,1,1,0,1,Act-1
8.1285,1.4078,0.8764,0,0,15.2907,0,6.6184,1,1,1,1,1,0,0,0,0,0,0,0,0,0,0,1,Act-1
8.1775,1.3737,0.8985,0,0,11.9959,1,5.4273,0,1,1,1,1,1,1,0,0,0,0,1,0,1,0,1,Act-1
8.221,1.3737,0.9928,0,0,10.1039,1,5,0,1,1,1,1,2,2,0,0,1,0,1,0,1,0,1,Act-1
8.1538,1.4224,1.0296,0,0,14.7385,0,9.3882,1,1,1,1,0,2,2,0,0,0,0,0,0,1,0,1,Act-1
8.1718,1.395,0.9667,0,0,12.1542,0,12.0959,1,1,1,1,1,1,1,0,0,0,0,0,0,1,0,1,Act-1
8.1965,1.395,0.969,0,0,13.3094,0,12.0959,0,1,1,1,1,0,0,0,0,1,0,0,0,0,0,1,Act-1
8.3688,1.4222,0.9345,0,0,10.8036,0,11.283,0,1,1,1,2,0,0,0,0,0,0,0,0,1,0,1,Act-1
8.0584,1.4868,0.8522,0,1,14.2917,0,11.6291,0,1,1,1,1,0,0,0,0,1,0,0,0,1,0,1,Act-1
8.0439,1.3464,0.9153,0,0,11.6418,0,8.9691,0,1,0,1,0,0,0,0,1,0,0,0,0,0,0,1,Act1
8.2703,1.4068,0.9574,0,0,11.3464,0,9.9058,0,1,1,1,1,0,0,0,0,0,0,1,0,0,0,1,Act1
8.0744,1.414,0.8395,0,0,14.3141,0,10.0151,0,1,1,1,1,0,0,0,0,0,0,0,0,0,0,1,Act1
8.23,1.414,0.9637,0,0,12.9547,0,9.9058,0,1,1,1,1,0,0,0,0,0,0,0,0,0,0,1,Act1
8.1285,1.4078,0.8554,0,0,15.3744,0,8.1664,0,1,1,1,1,0,0,0,0,0,0,0,0,1,0,1,Act-1
8.2639,1.505,1.1812,0,0,16.6717,0,12.9245,1,1,1,1,0,1,1,0,0,0,0,0,1,0,0,1,Act1
7.7387,1.519,1.0709,0,0,20.5581,0,12.5506,1,1,1,1,0,1,1,0,0,1,0,0,1,1,0,1,Act1
7.7281,1.5014,0.9978,0,0,16.4672,0,7.3965,0,1,1,1,0,0,0,0,0,0,0,0,0,0,0,1,Act1
8.1111,1.4369,0.9603,0,0,8.343,0,8.1669,0,1,1,1,0,0,0,0,0,0,0,0,0,0,0,1,Act1
8.1111,1.4345,0.9514,0,0,8.2467,0,8.028,0,1,1,1,0,0,0,0,0,0,0,0,0,0,0,1,Act1
8.537,1.3641,1.2112,0,0,7.0519,0,5.9528,1,1,1,1,0,0,0,0,0,0,0,0,0,1,0,1,Act-1
8,1.5192,1.1109,0,0,22.7402,0,12.5867,0,1,1,1,0,0,0,0,0,0,0,0,0,1,0,1,Act1
7.9971,1.6009,0.9769,0,1,13.414,0,12.7952,1,1,1,1,0,0,0,0,0,1,0,0,1,1,0,1,Act1
8.1264,1.5385,0.9174,0,0,18.0839,0,10.5892,0,1,0,1,0,1,1,0,0,1,0,0,1,1,0,1,Act1
8.0889,1.5667,0.894,0,0,21.9937,0,12.3438,0,1,0,1,0,0,0,0,0,1,0,0,1,1,0,1,Act1
8.1552,1.5385,0.9343,0,0,17.6084,0,7.6923,0,1,0,1,0,1,1,0,0,1,0,0,1,1,0,1,Act1
7.7099,1.4816,0.918,0,1,16.275,0,5.9389,0,1,0,1,0,0,0,0,0,1,0,0,1,1,0,1,Act1
8.4189,1.6159,1.0589,0,0,19.1263,0,12.695,0,1,0,1,3,1,1,0,0,1,0,0,1,1,0,1,Act1
8.3333,1.5262,0.9235,0,0,13.064,0,10.8078,1,1,1,1,0,1,1,0,0,0,0,0,1,1,0,1,Act1
8.2787,1.5619,1.0741,0,0,18.317,0,9.995,0,1,0,1,0,0,0,0,0,1,0,0,1,1,0,1,Act1
8.0074,1.6483,1.047,0,0,28.07,0,13.0434,0,1,0,1,0,0,0,0,0,1,0,0,1,1,0,1,Act1
8.1204,1.5382,1.1051,0,0,18.5569,0,9.2315,0,1,0,1,1,0,0,0,0,1,0,0,1,1,0,1,Act1
7.8013,1.4935,1.2159,0,0,22.0781,0,8.4171,0,1,1,1,1,0,0,0,0,0,0,0,1,0,0,1,Act1
7.941,1.4169,0.8476,0,0,17.3816,0,9.6382,0,1,1,1,1,0,0,0,0,0,0,0,0,1,1,1,Act-1
8.0243,1.4169,0.8476,0,0,16.6648,0,9.6382,0,1,1,1,1,0,0,0,0,0,0,0,0,0,0,1,Act-1
8.4772,1.4409,1.0578,0,0,11.7025,0,10.4893,1,1,1,1,0,0,0,0,0,0,0,0,0,1,0,1,Act1
7.7542,1.5037,0.8643,0,1,11.2687,0,9.1074,0,1,0,1,0,1,1,0,0,1,0,0,0,1,0,1,Act1
7.6875,1.5019,1.0979,0,0,17.1328,0,8.1666,0,1,1,1,0,0,0,0,0,0,0,0,0,0,0,1,Act-1
7.95,1.5019,1.2427,0,0,15.2947,0,8.1187,0,1,1,1,0,0,0,0,0,0,0,0,0,0,0,1,Act1
8.1832,1.5497,0.8121,0,0,17.468,0,13.7054,1,1,1,1,0,0,0,0,0,0,0,0,1,1,0,1,Act1
8.0588,1.3044,0.9007,0,0,20.0733,0,9.2627,1,1,1,1,1,0,0,0,0,0,0,0,0,0,0,1,Act1
7.8671,1.4559,1.024,0,0,22.6665,0,9.7932,0,1,1,1,0,1,1,0,0,0,0,0,0,1,0,1,Act1
7.5726,1.4193,1.0322,0,0,41.0741,0,13.2167,1,1,1,1,0,0,0,0,0,1,0,0,1,1,0,1,Act-1
7.6061,1.4247,0.9964,0,0,32.5647,0,13.0797,1,1,1,1,0,0,0,0,0,1,0,0,1,1,0,1,Act1
7.9693,1.2949,0.647,0,0,18.45,0,7.0059,0,1,1,1,0,0,0,0,1,0,0,0,1,0,0,1,Act1
7.9405,1.3299,0.2385,0,0,9.5923,0,4.1689,0,1,1,0,0,0,0,0,0,0,0,0,1,0,1,0,Act1
8.1065,1.5245,1.017,0,0,24.9723,0,12.3738,1,1,1,1,0,0,0,0,0,0,0,0,1,0,0,1,Act1
7.9753,1.476,0.905,0,0,22.1534,0,8.4313,0,1,0,1,0,0,0,0,0,0,0,0,1,1,0,1,Act-1
7.5833,1.639,0.9656,0,0,27.2429,0,11.2843,0,1,0,1,0,1,1,0,0,1,0,0,1,1,0,1,Act1
7.5417,1.5625,0.9899,0,0,36.2569,0,14.2464,0,1,0,1,0,0,0,0,0,1,0,0,1,1,0,1,Act1
7.9346,1.5922,0.9898,0,0,42.1596,0,18.2579,1,1,1,1,0,1,1,0,0,0,1,1,1,0,0,1,Act1
7.7586,1.6003,0.8818,0,0,25.4523,0,14.7032,1,1,1,1,0,0,0,0,0,0,0,0,1,1,0,1,Act1
7.6351,1.3871,0.9807,0,0,20.5445,0,11.2164,1,1,1,1,0,0,0,0,0,1,0,0,1,1,0,1,Act1
7.9753,1.484,1.0252,0,0,21.8637,0,8.0323,0,1,0,1,0,0,0,0,0,1,0,0,1,1,0,1,Act-1
7.6458,1.5761,1.0201,0,2,28.6446,0,11.0847,0,1,1,1,0,0,0,0,0,1,0,0,1,1,0,1,Act-1
7.5758,1.3987,0,0,0,13.8558,0,3.3889,0,0,0,0,0,0,0,0,0,0,0,0,1,1,0,1,Act1
8.1832,1.5494,0.9713,0,0,18.0858,0,13.8444,1,1,1,1,0,0,0,0,0,0,0,0,1,1,0,1,Act1
8.3047,1.5494,0.9489,0,0,16.9505,0,13.7862,1,1,1,1,0,0,0,0,0,0,0,0,1,1,0,1,Act1
8.452,1.5505,0.9431,0,0,14.9154,0,13.0852,1,1,1,1,0,0,0,0,0,0,0,0,1,1,0,1,Act1
8.3047,1.546,0.9896,0,0,17.1228,0,13.663,1,1,1,1,0,0,0,0,0,0,0,0,1,1,0,1,Act1
8.0224,1.5483,1.0088,0,0,21.3324,0,14.7195,1,1,1,1,0,0,0,0,0,0,0,0,1,1,0,1,Act1
8.0807,1.5693,0.9538,0,0,20.8635,0,14.3023,1,1,1,1,0,0,0,0,0,0,0,0,1,1,0,1,Act1
8.4216,1.5403,0.8073,0,0,17.8572,0,14.3023,1,1,1,1,0,0,0,0,0,0,0,0,1,1,0,1,Act1
8.0224,1.5471,1.0017,0,0,21.2199,0,15.0312,1,1,1,1,0,0,0,0,0,0,0,0,1,1,0,1,Act1
8.1478,1.5471,0.9631,0,0,19.6614,0,13.8,1,1,1,1,0,0,0,0,0,0,0,0,1,1,0,1,Act1
8.0188,1.5471,1.0098,0,0,21.2644,0,13.8,1,1,1,1,0,1,1,0,0,0,0,0,1,1,1,1,Act1
7.9806,1.5488,1.0069,0,0,23.5257,0,14.3023,1,1,1,1,0,0,0,0,0,0,0,0,1,1,0,1,Act1
8.0224,1.5522,1.0194,0,0,21.5172,0,14.3554,1,1,1,1,0,0,0,0,0,0,0,0,1,1,0,1,Act1
8.1478,1.5522,0.9742,0,0,20.1389,0,14.3676,1,1,1,1,0,0,0,0,0,0,0,0,1,1,0,1,Act1
7.9044,1.6602,0.9562,0,0,28.0104,0,15.7532,1,1,1,1,0,0,0,0,0,0,0,0,1,1,0,1,Act1
8.0139,1.5488,0.9442,0,0,21.1506,0,13.4459,1,1,1,1,1,0,0,0,0,0,0,0,1,1,0,1,Act1
7.7933,1.5455,0.9481,0,0,20.2986,0,10.5462,1,1,1,1,0,0,0,0,0,0,0,0,1,1,0,1,Act-1
8.1667,1.352,0.9933,1,0,11.4746,0,8.9687,1,1,1,1,0,0,0,0,0,0,0,0,1,0,0,1,Act-1
7.875,1.6257,0.8398,0,0,30.6504,0,17.4275,0,1,1,1,1,0,0,0,0,0,0,0,1,0,0,1,Act-1
8.8086,1.443,1.4393,0,0,12.157,0,9.1567,0,1,0,1,1,0,0,0,0,1,0,0,1,1,0,1,Act1
7.6731,1.4838,1.0531,0,1,20.9972,0,8.8606,1,1,1,1,0,2,2,0,0,0,0,0,1,1,0,1,Act1
7.9806,1.5145,0.8425,0,0,23.5926,0,12.3089,1,1,1,1,1,0,0,0,0,0,0,0,1,0,0,1,Act-1
7.9044,1.596,0.9084,0,0,28.0599,0,12.4701,1,1,1,1,1,0,0,0,0,0,0,0,1,0,0,1,Act-1
7.9944,1.5602,0.8328,0,0,24.3613,0,13.8835,1,1,1,1,0,0,0,0,0,0,0,0,1,0,0,1,Act1
7.7797,1.4324,0.7862,0,0,22.5888,0,12.4973,0,1,1,1,1,0,0,0,0,0,0,0,0,0,0,1,Act1
8.0032,1.3902,0.9197,0,0,18.9933,0,12.0306,0,1,1,1,1,0,0,0,0,0,0,0,0,0,0,1,Act-1
7.7184,1.5617,1.0102,0,0,26.7668,0,13.9138,0,1,1,1,0,1,1,0,0,0,0,0,1,0,0,1,Act1
7.5583,1.4151,1.0248,0,0,41.2937,0,13.7861,1,1,1,1,0,0,0,0,0,1,0,0,1,1,0,1,Act-1
7.5509,1.3965,0.9965,0,0,31.3903,0,11.8363,0,1,1,1,0,0,0,0,0,1,0,0,1,1,0,1,Act1
7.5667,1.4018,1.0044,0,0,31.2944,0,11.1937,1,1,1,1,0,0,0,0,0,1,0,0,1,1,0,1,Act1
7.5833,1.4075,1.0005,0,0,31.1767,0,10.7429,0,1,1,1,0,0,0,0,0,1,0,0,1,1,0,1,Act1
7.4949,1.5252,1.037,0,0,33.5816,0,12.5723,0,1,1,1,0,0,0,0,0,1,0,0,1,0,0,1,Act1
8.0064,1.464,1.0559,0,0,18.8792,0,12.6231,1,1,1,1,0,0,0,0,0,0,0,0,1,0,0,1,Act-1
7.5667,1.4012,1.0032,0,0,31.1973,0,11.1346,0,1,1,1,0,0,0,0,0,1,0,0,1,1,0,1,Act1
7.5833,1.4067,1.0115,0,0,31.0971,0,10.3687,1,1,1,1,0,0,0,0,0,1,0,0,1,1,0,1,Act1
7.5263,1.4238,1.0607,0,0,38.673,0,12.3304,0,1,0,1,0,2,2,0,0,1,0,0,1,1,0,1,Act1
7.6198,1.4189,1.0237,0,0,30.819,0,9.5271,1,1,1,1,0,0,0,0,0,1,0,0,1,1,0,1,Act1
7.8305,1.5758,0.7515,0,0,22.1286,0,7.2113,1,1,1,1,3,0,0,0,0,1,0,0,0,1,1,1,Act-1
7.875,1.3776,1.1054,0,0,21.7054,0,9.6432,1,1,1,1,0,0,0,0,0,1,0,0,1,1,0,1,Act1
7.6034,1.3829,0.9638,0,0,22.6771,0,11.3358,0,1,1,1,0,0,0,0,0,1,0,0,1,1,0,1,Act1
7.625,1.3887,0.9785,0,0,22.5978,0,10.6252,1,1,1,1,0,0,0,0,0,1,0,0,1,1,0,1,Act1
7.5962,1.4019,0.9993,0,0,22.5835,1,9.6432,0,1,0,1,0,0,0,0,0,1,0,0,1,1,1,1,Act1
7.6731,1.4019,0.9733,0,0,22.3736,0,9.6432,1,1,1,1,0,0,0,0,0,1,0,0,1,1,0,1,Act1
8.4912,1.4752,1.0641,0,0,19.0261,0,11.5337,0,1,1,1,1,0,0,0,0,0,0,0,0,0,0,1,Act1
8.2628,1.3835,1.0388,1,0,15.9013,0,7.9518,0,1,1,1,0,0,0,0,0,0,0,0,0,1,0,1,Act-1
7.6597,1.5034,0.9899,0,1,23.7899,0,10.5892,0,1,1,1,0,0,0,0,0,0,0,0,1,1,0,1,Act1
7.6867,1.5636,1.089,0,0,23.9581,0,10.0033,0,1,1,1,0,0,0,0,0,0,0,0,1,1,0,1,Act1
7.8877,1.4141,0.8452,0,0,19.9156,0,9.381,0,1,1,1,1,0,0,0,0,0,0,0,0,0,0,1,Act1
7.5,1.5474,0.9544,0,0,28.6328,0,11.4407,0,1,0,1,0,0,0,0,0,1,0,0,0,1,0,1,Act1
6.6667,1.3297,0.9909,0,0,20.9624,0,8.1837,0,1,0,1,0,0,0,0,0,0,0,0,0,0,0,1,Act1
7.7731,1.4365,0.9852,0,0,23.9479,0,13.3239,0,1,1,1,0,0,0,0,0,0,0,0,0,0,1,1,Act1
8.0402,1.4382,1.0237,1,0,22.9169,1,10.4906,0,1,1,1,0,0,0,0,0,0,0,0,0,0,1,1,Act-1
8.5575,1.4291,0.9395,0,0,17.0038,0,11.6758,0,1,1,1,0,0,0,0,0,0,0,1,0,0,0,1,Act1
8.0203,1.437,0.9366,0,0,20.0066,0,13.1361,0,1,1,1,0,0,0,0,0,0,0,1,0,0,0,1,Act1
8.225,1.3632,0.8786,1,0,10.1676,0,7.09,0,1,1,1,0,0,0,0,0,0,0,0,1,1,1,1,Act-1
8.0789,1.2041,0.9325,0,0,9.3597,0,10.0413,0,1,1,1,0,1,1,0,0,0,0,0,0,0,0,0,Act1
7.7153,1.5725,1.0231,0,0,23.5265,0,9.5603,0,1,0,1,0,0,0,0,0,0,0,0,1,1,0,1,Act1
7.28,1.5304,1.0871,0,0,23.2803,0,9.1479,1,1,1,1,0,0,0,0,0,1,0,0,0,1,0,1,Act1
8.1891,1.4379,0.9571,0,0,18.2892,0,9.6094,0,1,1,1,0,1,1,0,0,1,0,0,0,0,0,1,Act1
8.0203,1.4412,0.94,0,0,20.2062,0,12.38,0,1,1,1,0,0,0,0,0,0,0,0,0,0,0,1,Act1
8.0188,1.2904,0.9308,0,0,20.2847,0,11.7097,0,1,1,1,1,0,0,0,0,0,0,0,0,0,0,1,Act1
7.8413,1.4976,0.9358,0,0,22.617,0,11.029,0,1,1,1,1,0,0,0,0,0,0,0,0,0,0,1,Act1
7.8111,1.4086,1.1088,0,0,16.8461,0,13.3351,1,1,1,1,1,0,0,0,0,0,0,0,0,1,0,1,Act1
8.0528,1.4435,0.9794,0,0,10.5432,0,8.0679,0,1,1,1,0,0,0,0,0,0,0,0,0,0,0,1,Act1
8.1083,1.4611,1.0138,0,0,13.9111,0,7.808,0,1,1,1,0,0,0,0,0,0,0,0,0,0,0,1,Act-1
7.7708,1.4227,0.8338,0,0,13.3757,0,7.0302,1,1,0,1,0,0,0,0,0,0,0,0,0,0,0,1,Act1
7.6984,1.5792,1.087,0,0,19.3807,0,8.7169,0,1,1,1,0,0,0,0,0,0,0,0,0,0,0,1,Act1
7.9167,1.4435,0.9929,0,0,11.0916,0,8.0679,0,1,1,1,0,0,0,0,0,0,0,0,0,0,0,1,Act1
8.4417,1.4435,1.4316,0,0,8.9766,0,6.4141,0,1,1,1,0,0,0,0,0,0,0,0,0,0,0,1,Act1
8.193,1.448,1.2859,0,0,11.324,0,7.036,0,1,1,1,0,0,0,0,0,0,0,0,0,0,0,1,Act1
8.175,1.4701,1.095,0,0,13.514,0,7.2738,0,1,1,1,0,0,0,0,0,0,0,0,0,0,0,1,Act-1
8.1083,1.4565,1.102,0,0,13.8817,0,7.808,0,1,1,1,0,0,0,0,0,0,0,0,0,0,0,1,Act1
7.9167,1.4522,1.0166,0,0,14.3474,0,7.2738,0,1,1,1,0,0,0,0,0,0,0,0,0,0,0,1,Act1
7.9136,1.531,1.0756,0,0,15.1033,0,9.0261,1,1,1,1,0,0,0,0,0,0,0,0,1,1,0,1,Act1
6.6961,1.5546,0.7058,0,0,15.8907,0,6.5558,0,1,0,0,0,0,0,0,0,0,0,0,0,1,1,1,Act1
8.0149,1.5344,0.9136,0,0,19.7231,0,11.2096,1,1,1,1,1,0,0,0,0,0,0,0,0,0,0,1,Act-1
7.9195,1.6729,0.9985,0,0,22.5563,0,9.8212,0,1,0,1,0,0,0,0,0,1,0,0,1,1,0,1,Act1
8.4802,1.4088,0.8766,0,0,11.425,0,7.8572,0,1,0,1,0,0,0,0,0,1,0,0,1,1,0,1,Act1
8.062,1.568,1.0444,0,0,15.7843,0,7.8458,0,1,0,1,0,0,0,0,0,1,0,0,1,1,0,1,Act1
8.2115,1.568,1.1105,0,0,14.5698,0,7.2254,0,1,0,1,0,0,0,0,0,1,0,0,1,1,0,1,Act1
8.2115,1.564,1.1105,0,0,14.8287,0,7.1153,0,1,0,1,0,0,0,0,0,1,0,0,1,1,0,1,Act1
8.0577,1.564,1.0784,0,0,15.9975,0,7.1153,0,1,0,1,0,0,0,0,0,1,0,0,1,1,1,1,Act1
8.1538,1.5152,1.0589,0,0,10.8021,0,7.1153,1,1,1,1,0,0,0,0,0,1,0,0,1,1,0,1,Act1
7.5242,1.649,0.9016,0,0,32.288,0,13.175,0,1,0,1,0,0,0,0,0,1,0,0,1,1,0,1,Act-1
7.5681,1.649,0.886,0,0,31.7501,0,13.175,0,1,0,1,0,0,0,0,0,1,0,0,1,1,0,1,Act1
7.6935,1.649,0.9554,0,0,30.2132,0,13.0994,0,1,0,1,0,0,0,0,0,1,0,0,1,1,0,1,Act1
8.0133,1.5713,1.116,0,0,18.2016,0,8.0706,0,1,0,1,0,0,0,0,0,1,0,0,1,1,0,1,Act1
8.0133,1.5713,1.116,0,0,17.4733,0,8.2343,0,1,0,1,0,0,0,0,0,1,0,0,1,1,0,1,Act1
8.0133,1.5748,1.1316,0,0,17.8143,0,7.9649,0,1,0,1,0,0,0,0,0,1,0,0,1,1,0,1,Act1
8.2121,1.6413,0.7979,0,0,19.8472,0,11.3065,0,1,0,1,0,0,0,0,0,1,0,0,1,1,0,1,Act1
7.9358,1.6439,0.9752,0,0,23.1531,0,11.7757,0,1,0,1,0,0,0,0,0,1,0,0,1,1,0,1,Act1
8.0573,1.6439,0.9035,0,0,21.7559,0,11.6622,0,1,0,1,0,0,0,0,0,1,0,0,1,1,0,1,Act1
8.2121,1.6383,0.7399,0,0,19.7836,0,10.6937,0,1,0,1,0,0,0,0,0,1,0,0,1,1,0,1,Act1
8.1887,1.6369,0.8921,0,0,23.1443,0,12.3613,0,1,0,1,0,0,0,0,0,1,0,0,1,1,0,1,Act1
7.8925,1.6437,0.865,0,0,25.27,0,12.3014,0,1,0,1,0,0,0,0,0,1,0,0,1,1,0,1,Act1
8.2119,1.6343,0.9521,0,0,23.8242,0,12.3014,0,1,1,1,0,0,0,0,0,1,0,0,1,1,0,1,Act1
8.2181,1.6369,0.8768,0,0,21.6042,0,10.6937,0,1,0,1,0,0,0,0,0,1,0,0,1,1,0,1,Act1
7.8925,1.6424,0.9725,0,0,25.2585,0,11.7404,0,1,0,1,0,0,0,0,0,1,0,0,1,1,0,1,Act1
7.75,1.6451,1.0016,0,0,26.7636,0,10.6937,0,1,0,1,0,0,0,0,0,1,0,0,1,1,0,1,Act1
7.7833,1.6451,1.0212,0,0,24.3009,0,9.1355,0,1,0,1,0,2,2,0,0,1,0,0,1,1,0,1,Act1
7.7759,1.6195,1.014,0,0,23.0424,0,9.1355,0,1,0,1,0,2,2,0,0,1,0,0,1,1,0,1,Act1
7.7022,1.5665,0.9706,0,0,20.4337,0,9.2792,0,1,0,1,0,0,0,0,0,1,0,0,1,1,0,1,Act1
7.8046,1.6195,1.0554,0,0,22.3755,0,7.1153,0,1,0,1,0,2,2,0,0,1,0,0,1,1,0,1,Act1
7.9333,1.5665,1.0619,0,0,18.6851,0,7.1153,1,1,1,1,0,0,0,0,0,1,0,0,1,1,0,1,Act1
8.3822,1.5497,0.8532,0,0,16.9822,0,7.1153,1,1,1,1,0,0,0,0,0,1,0,0,1,1,0,1,Act1
8.0133,1.5677,1.1004,0,0,17.6074,0,7.8409,0,1,0,1,0,0,0,0,0,1,0,0,1,1,0,1,Act1
8.2113,1.5574,0.7096,0,0,19.8127,0,8.0215,0,1,1,1,0,0,0,0,0,1,0,0,1,1,0,1,Act1
7.7986,1.5753,1.074,0,0,21.2391,0,8.0297,0,1,0,1,0,0,0,0,0,1,0,0,1,1,0,1,Act1
7.5897,1.6487,1.0137,0,1,22.9495,0,7.1153,0,1,0,1,0,1,1,0,0,1,0,0,1,1,0,1,Act1
7.6061,1.5489,0.9623,0,0,18.8967,0,6.4708,0,1,0,1,0,1,1,0,0,1,0,0,1,1,0,1,Act1
7.6818,1.5489,0.9684,0,0,18.2686,0,6.4708,1,1,1,1,0,1,1,0,0,1,0,0,1,1,0,1,Act1
7.9744,1.5586,0.8573,0,0,18.5069,0,8.0297,0,1,0,1,0,0,0,0,0,1,0,0,1,1,0,1,Act1
8.0533,1.5665,1.0973,0,0,17.5194,0,7.1153,0,1,0,1,0,0,0,0,0,1,0,0,1,1,0,1,Act1
8.0128,1.5579,0.9575,0,0,17.9347,0,7.9171,0,1,0,1,0,0,0,0,0,1,0,0,0,1,0,1,Act1
8.1751,1.4003,0.9752,0,0,13.4323,0,10.0316,0,1,1,1,1,0,0,0,0,1,0,0,0,1,0,1,Act-1
8.1833,1.2745,0.9158,0,0,6.7356,0,5.6676,0,1,1,1,0,0,0,0,0,0,0,0,0,0,0,0,Act1
8.037,1.4861,1.0061,0,0,11.7503,0,9.9656,0,1,1,1,0,0,0,0,0,0,0,0,0,0,0,1,Act1
8.2116,1.3531,1.0926,0,0,9.6338,2,8.1053,0,1,1,1,0,0,0,0,0,0,0,0,0,0,1,1,Act-1
7.9561,1.4245,1.0053,0,0,14.1437,0,7.307,0,1,1,1,0,0,0,0,0,1,0,0,0,1,0,1,Act1
8.0111,1.3492,0.9523,0,0,10.8732,0,8.0679,0,1,1,1,0,0,0,0,0,0,0,0,0,0,0,1,Act-1
8.0493,1.5516,0.9269,0,0,17.7598,0,14.4726,1,1,1,1,0,0,0,0,0,0,0,0,0,0,0,1,Act1
7.998,1.5391,0.962,1,0,18.0832,0,11.3742,0,1,1,1,0,0,0,0,0,0,0,0,1,0,0,1,Act1
7.7153,1.6216,0.7548,0,0,23.1589,0,9.5603,0,1,0,1,0,0,0,0,1,0,0,0,1,1,0,1,Act1
7.6517,1.4885,1.059,0,0,23.6983,0,8.857,0,1,1,1,1,0,0,0,0,0,0,0,1,0,0,1,Act-1
8.1508,1.5518,1.145,0,1,10.446,0,6.0687,0,1,1,1,1,0,0,0,0,1,0,0,0,1,0,1,Act1
7.7889,1.5545,0.6153,0,0,12.8432,0,5.9961,0,1,1,0,0,0,0,0,0,0,0,0,0,0,0,1,Act1
8.1597,1.5559,0.8079,0,0,14.6189,0,9.921,1,1,1,1,0,0,0,0,0,0,0,0,0,0,0,1,Act1
7.9792,1.5294,0.8185,0,0,22.4455,0,11.723,0,1,1,1,1,0,0,0,0,0,0,0,0,0,0,1,Act1
7.9454,1.5222,0.9333,0,0,23.1281,0,12.4876,0,1,1,1,1,0,0,0,0,0,0,0,0,0,0,1,Act1
8.1285,1.4036,0.944,0,0,15.5596,1,8.4774,0,1,1,1,1,1,1,0,0,0,0,1,0,0,0,1,Act-1
7.8333,1.5217,1.0115,0,0,17.6518,0,10.7796,1,1,1,1,0,2,2,0,0,0,0,0,1,1,0,1,Act1
7.8157,1.3894,1.0069,0,0,14.7368,0,10.5684,1,1,1,1,1,0,0,0,0,1,0,0,1,1,0,1,Act1
8.2146,1.478,0.7685,0,0,15.6253,0,17.5043,1,1,1,1,0,2,2,0,0,1,0,0,0,1,0,1,Act1
8.1181,1.4195,1.0055,0,0,17.2079,1,14.6504,0,1,1,1,1,0,0,0,0,1,0,1,0,0,0,1,Act1
8.1892,1.3779,0.7423,0,0,12.2191,0,8.048,0,1,0,1,0,0,0,0,0,0,0,0,0,0,0,1,Act1
7.8551,1.514,0.9417,0,0,17.3048,0,12.0996,1,1,1,1,0,0,0,0,0,0,0,0,0,0,0,1,Act1
8.2351,1.4467,1.1107,0,0,16.9927,0,9.0467,0,1,1,1,0,0,0,0,0,0,0,0,0,0,0,1,Act1
7.5069,1.6335,1.0714,0,1,26.2276,0,7.5591,0,1,0,1,0,1,1,0,0,0,0,0,1,0,0,1,Act1
7.5486,1.6335,1.0705,0,1,23.727,0,7.3053,0,1,0,1,0,1,1,0,0,0,0,0,1,1,0,1,Act1
7.8365,1.5097,0.888,0,0,20.0325,0,10.0241,0,1,1,1,1,0,0,0,0,0,0,0,0,1,0,1,Act-1
8.1111,1.4345,0.9603,0,0,8.2287,0,8.1254,0,1,1,1,0,0,0,0,0,0,0,0,0,0,0,1,Act1
7.8867,1.4345,1.0666,0,0,9.3725,0,8.1254,0,1,1,1,0,0,0,0,0,0,0,0,0,0,0,1,Act1
7.7202,1.6203,0.8865,0,0,17.0447,0,7.8474,0,1,1,1,0,1,1,0,0,1,0,0,1,1,0,1,Act1
8.5799,1.4785,1.0487,0,0,10.435,0,8.1187,0,1,1,1,0,0,0,0,0,0,0,0,0,0,0,1,Act1
8.1984,1.4954,1.2099,0,0,11.8711,0,7.6261,0,1,1,1,0,0,0,0,0,0,0,0,0,0,0,1,Act1
7.962,1.5632,0.9543,0,0,22.0043,0,12.6474,0,1,1,1,0,0,0,0,0,0,0,0,0,1,0,1,Act1
8.3561,1.525,0.7564,0,0,13.2585,0,15.8077,0,1,1,1,0,0,0,0,0,1,0,0,1,1,0,1,Act1
8.1528,1.569,1.0242,0,0,13.4087,0,11.2824,1,1,1,1,0,0,0,0,0,1,0,0,1,0,0,1,Act1
8.1515,1.4314,0.9643,0,0,11.9388,0,5.4103,1,1,1,1,0,0,0,0,0,0,0,0,1,1,0,1,Act1
8.7549,1.2145,0.606,0,1,2.5653,0,0,1,1,1,0,0,0,0,0,0,0,0,0,0,0,0,0,Act-1
8.1422,1.5808,1.0167,0,0,15.8612,0,12.5103,1,1,1,1,0,2,2,0,0,1,0,0,1,1,0,1,Act1
8.3333,1.2209,0.875,0,0,3.1004,0,1,1,1,1,0,0,0,0,0,0,1,0,0,1,1,0,0,Act1
8.2833,1.2932,0,0,0,6.2356,0,1.8899,1,0,0,0,0,0,0,0,0,0,0,0,0,0,1,0,Act-1
8.2614,1.4705,0.9249,0,0,12.0656,0,7.8547,1,1,1,1,0,1,1,0,0,1,0,0,0,1,1,1,Act1
8.1637,1.3479,0.7861,0,0,9.7001,1,6.5886,0,1,1,1,0,0,0,0,0,0,0,0,0,0,1,1,Act1
8.3175,1.4163,0.7887,0,0,9.7948,0,8.3199,0,1,1,1,0,0,0,0,0,0,0,0,1,1,0,1,Act1
8.8636,1.3433,1.2193,0,0,2.3661,0,7.0743,1,1,1,1,0,0,0,0,0,0,0,0,0,1,0,0,Act1
8.0119,1.3299,0.0825,0,0,6.9466,0,2.8717,0,0,0,0,0,0,0,0,0,0,0,0,1,0,1,0,Act-1
7.6905,1.4774,0.5775,0,1,10.6476,0,3,0,1,0,0,0,0,0,0,0,1,0,0,1,1,0,1,Act1
8.0306,1.416,0.8605,0,0,11.3149,0,8.1462,1,1,1,1,0,0,0,0,1,0,0,0,1,1,0,1,Act1
8.3981,1.4401,1.1079,0,0,10.7062,0,8.3199,1,1,1,1,1,0,0,0,0,1,0,0,1,1,0,1,Act1
8.1667,1.2239,0.7895,0,0,10.2318,0,10.0707,1,1,1,1,0,0,0,0,0,0,0,0,0,0,0,1,Act1
8.0877,1.4018,0.7468,0,0,10.4063,0,4.5113,0,1,1,1,0,0,0,0,0,0,0,0,0,0,0,1,Act1
7.7879,1.5325,0.8127,0,0,16.1126,0,8.4546,0,1,0,1,1,0,0,0,0,1,0,0,1,1,0,1,Act-1
8.1491,1.3118,0.9214,0,1,2.7946,1,0,1,1,1,0,0,0,0,0,0,1,0,0,1,1,1,1,Act-1
8.2372,1.289,0.9088,1,1,2.7126,2,1,1,1,1,1,0,1,1,0,0,1,0,0,1,1,1,1,Act-1
8.2197,1.3053,0.9574,0,1,2.7414,0,0,1,1,1,1,0,0,0,0,0,1,0,0,1,1,0,1,Act-1
7.7632,1.3339,0.9415,0,1,3.1957,0,1.8899,0,1,1,1,0,0,0,0,0,1,0,0,0,1,1,1,Act-1
8.2,1.2982,0,0,1,1.4374,0,0,0,0,0,0,0,0,0,0,0,1,0,0,0,1,0,0,Act-1
8.4271,1.2581,0.939,0,0,4.1752,0,7.2972,1,1,1,1,0,0,0,0,0,0,0,0,0,0,1,0,Act-1
7.3175,1.3505,0.9343,0,0,17.7337,0,6.4497,0,1,0,1,0,0,0,0,0,0,0,0,0,1,0,1,Act-1
8.2572,1.3889,0.9373,0,0,12.3644,0,7.7527,1,1,1,1,0,0,0,0,0,1,0,0,0,0,0,1,Act-1
8.0473,1.2742,0.506,0,0,8.1188,0,9.8554,1,1,1,1,4,2,2,1,0,0,1,1,0,1,0,1,Act1
8.0476,1.2526,0.9758,0,0,14.8637,0,12.6632,1,1,1,1,1,0,0,1,0,0,0,1,0,1,0,1,Act-1
7.6566,1.4754,0.9398,0,0,14.9514,0,9.0633,0,1,0,1,2,0,0,0,0,1,0,0,1,1,0,1,Act1
7.5794,1.4796,0.9568,0,0,17.5023,0,8.4286,0,1,0,1,2,0,0,0,0,1,0,0,1,1,0,1,Act-1
8.3782,1.2854,1.4341,0,0,8.6396,0,9.0815,1,1,1,1,0,0,0,0,0,0,0,0,0,1,0,1,Act1
7.9511,1.3292,0.9254,0,0,11.1197,0,7.8467,0,1,1,1,0,0,0,0,0,0,0,0,1,0,0,1,Act1
7.6068,1.265,1.0932,0,0,27.7548,0,11.307,0,1,1,1,0,0,0,1,0,0,0,0,1,1,0,1,Act1
7.4583,1.2723,1.039,0,0,28.9418,0,10.3674,0,1,1,1,0,0,0,1,0,0,0,0,1,1,0,1,Act1
7.9766,1.3197,0.7789,0,0,5.4122,0,5.3549,0,1,1,0,1,0,0,0,0,1,0,0,1,1,1,1,Act1
8.386,1.3197,0.7978,0,0,3.9399,0,5.3226,0,1,1,0,1,0,0,0,0,1,0,0,1,1,1,1,Act-1
7.9766,1.3238,0.7604,0,0,5.3033,0,5.1823,0,1,1,0,1,0,0,0,0,1,0,0,1,1,1,1,Act1
8.386,1.3142,1.0627,0,0,3.6398,0,4.3952,0,1,1,0,1,0,0,0,0,1,0,0,1,1,1,1,Act1
7.8287,1.3168,0.8863,0,0,7.9979,0,5.4227,0,1,1,0,1,0,0,0,0,1,0,0,1,1,1,1,Act1
7.8235,1.3207,0.7085,0,0,9.9842,0,5.0401,0,1,1,0,1,0,0,0,0,1,0,0,1,1,1,1,Act1
7.7927,1.444,0.9068,0,0,15.3131,1,8.9702,0,1,1,1,1,0,0,0,0,1,0,0,1,1,1,1,Act1
7.9167,1.4022,0.8362,0,0,17.001,0,9.0972,1,1,1,1,0,0,0,0,0,1,0,0,1,1,1,1,Act1
7.85,1.3921,0.9111,0,0,14.9686,0,12.2688,1,1,1,1,0,0,0,0,0,1,0,0,1,1,0,1,Act-1
7.8241,1.3783,0.9392,0,0,13.1645,0,14.1947,1,1,1,1,0,0,0,0,0,1,0,0,1,1,0,1,Act-1
7.9368,1.5228,1.1567,0,1,18.7616,0,8.3093,0,1,1,1,0,0,0,1,0,1,0,0,1,1,0,1,Act1
9.1548,1.1037,0,0,0,0,0,0,1,0,0,0,0,0,0,1,0,1,0,0,0,0,0,0,Act-1
7.9948,1.5075,1.121,1,0,17.6298,0,13.3849,0,1,1,1,0,0,0,1,0,0,0,0,1,0,0,1,Act1
7.7424,1.4722,1.1753,0,0,13.9788,0,4.3367,0,1,1,1,0,0,0,1,0,0,0,0,1,1,0,1,Act1
7.6111,1.3509,1.1625,0,0,23.5666,0,9.1519,1,1,1,1,0,1,1,0,1,0,0,0,0,1,0,1,Act1
7.9423,1.3255,1.0624,0,0,10.8088,0,5.5595,1,1,1,1,0,3,3,0,1,0,0,0,1,1,1,1,Act-1
8.043,1.3802,0.9198,0,0,8.5267,0,10.2412,1,1,1,1,0,0,0,0,1,1,0,0,1,1,0,1,Act-1
7.7011,1.246,1.1051,0,0,3.2195,0,11.1985,1,1,1,1,0,0,0,0,0,0,0,0,0,1,0,0,Act1
7.9921,1.2359,1.0229,0,0,24.8376,1,15.5003,1,1,1,1,0,2,2,0,0,0,0,0,0,0,1,1,Act-1
8.0021,1.1381,0.9986,1,0,9.5803,0,10.9801,1,1,1,1,1,0,0,0,0,0,0,0,0,0,0,0,Act-1
7.8083,1.1168,0.9965,1,0,0,0,4.4379,0,1,1,1,0,2,2,0,0,1,0,0,0,1,0,0,Act-1
8.4691,1.182,1.0667,2,0,1.512,0,9.4494,1,1,1,1,1,1,1,1,0,0,0,0,0,1,1,0,Act1
8.0588,1.3298,1.2118,0,0,9.9307,0,6.4216,0,1,1,1,0,0,0,0,0,0,0,0,0,0,0,1,Act1
7.5172,1.1378,1.0012,0,0,7.2332,0,9.1653,0,1,1,1,0,0,0,0,0,0,0,0,0,0,0,0,Act1
7.6183,1.3341,0.9942,0,0,14.9169,0,14.1647,0,1,1,1,0,0,0,0,0,0,0,0,0,0,0,1,Act1
8.2755,1.1993,1.0267,1,0,8.8057,0,8.5256,1,1,1,1,0,0,0,1,0,0,0,0,0,0,1,0,Act-1
7.9792,1.537,1.1038,0,0,21.5755,0,17.3462,1,1,1,1,0,1,1,0,0,0,0,0,1,1,0,1,Act1
7.7071,1.5146,1.0366,0,1,23.0725,0,14.5893,0,1,1,1,0,0,0,0,0,1,0,0,1,1,0,1,Act1
7.82,1.4262,0.9815,0,0,15.355,0,10.9264,1,1,1,1,0,0,0,0,0,0,0,0,1,1,0,1,Act1
8.5567,1.3291,1.0269,0,0,5.4121,0,8.9917,0,1,1,1,0,0,0,0,0,0,0,0,0,0,0,1,Act1
7.4841,1.2443,1.0364,0,0,10.391,0,10.2699,1,1,1,1,0,0,0,0,0,0,0,0,0,0,0,0,Act1
7.5049,1.3006,0.9843,0,0,10.4284,0,13.699,0,1,1,1,0,1,1,0,0,1,0,0,1,1,0,1,Act1
7.7094,1.3955,0.8444,0,0,11.1832,0,9.5673,1,1,1,1,0,0,0,0,0,0,0,0,0,0,0,1,Act1
7.7005,1.4046,0.7999,0,0,12.597,0,9.2493,1,1,1,1,0,0,0,0,0,0,0,0,0,0,0,1,Act1
7.8807,1.3802,0.9234,0,0,10.0313,0,6.1847,1,1,1,1,0,1,1,0,0,0,0,0,0,1,0,1,Act1
8.0385,1.3989,0.9872,0,0,14.11,0,10.9902,0,1,1,1,0,0,0,0,0,0,0,0,1,1,0,1,Act1
7.7933,1.398,0.9715,0,0,15.7271,0,11.4614,1,1,1,1,0,0,0,0,0,0,0,0,1,1,0,1,Act1
7.9253,1.3117,1.0745,1,0,9.2964,0,7.9099,0,1,1,1,0,0,0,0,0,1,0,0,1,1,1,1,Act-1
8.1398,1.3668,0.9553,0,0,11.8344,0,8.9129,1,1,1,1,0,0,0,0,0,0,0,0,0,1,0,1,Act1
7.5417,1.3722,1.0235,0,0,31.297,0,10.6158,1,1,1,1,0,0,0,0,0,1,0,0,1,1,0,1,Act1
7.8594,1.5077,1.0207,0,1,18.9241,0,13.1275,1,1,1,1,0,0,0,0,0,1,0,0,1,1,0,1,Act1
7.6882,1.5088,1.0583,0,1,23.1828,0,13.1628,1,1,1,1,0,0,0,0,0,1,0,0,1,1,0,1,Act1
7.7183,1.221,0.6574,0,0,5.4452,0,3.9203,0,1,0,0,0,0,0,0,0,0,0,0,0,0,0,0,Act-1
7.96,1.156,0.9675,0,0,6.4767,0,9.3598,1,1,1,1,0,1,1,0,1,0,0,0,1,1,1,0,Act1
7.5056,1.2673,0.8959,0,0,10.2337,0,11.2464,0,1,1,1,0,0,0,0,0,1,0,0,1,1,1,1,Act1
7.2593,1.1413,1.0175,0,0,9.4246,0,11.3747,0,1,0,1,0,0,0,0,0,0,0,0,0,1,0,0,Act-1
7.74,1.3177,0.8548,0,0,14.9345,0,11.4827,1,1,1,1,0,1,1,0,0,0,0,0,1,0,0,1,Act-1
7.4769,1.3789,1.015,0,0,31.5432,0,11.8904,1,1,1,1,0,0,0,0,0,1,0,0,1,1,0,1,Act1
7.5056,1.3545,1.044,0,0,22.8458,1,11.38,0,1,0,1,0,0,0,0,0,1,0,0,1,1,1,1,Act1
7.7989,1.4131,1.0823,0,0,12.0472,0,10.5092,0,1,1,1,0,7,7,0,0,1,0,0,1,1,1,1,Act1
7.537,1.1332,1.0758,0,0,10.4053,0,10.5688,1,1,1,1,0,0,0,0,0,0,0,0,1,0,0,0,Act-1
7.4028,1.2027,0.7756,0,0,0,0,5.7602,0,1,1,1,0,0,0,0,0,1,0,0,1,1,1,0,Act1
8.003,1.4614,1.0569,0,0,16.4222,0,12.4783,1,1,1,1,0,0,0,0,0,0,0,0,1,0,1,1,Act-1
7.9458,1.329,1.1194,0,0,12.9055,0,7.4155,1,1,1,1,0,0,0,0,0,0,0,0,1,1,0,1,Act-1
8.2927,1.2215,0.8593,1,0,1.0147,1,8.1261,0,1,1,1,0,0,0,0,0,0,0,0,1,1,1,0,Act-1
8.0152,1.3422,0.9691,0,0,13.2019,0,9.7506,0,1,1,1,0,0,0,0,0,0,0,0,0,0,0,1,Act1
7.6615,1.2861,0.9357,0,0,13.4589,0,11.0687,1,1,1,1,0,0,0,0,0,0,0,0,0,0,0,1,Act-1
7.7667,1.5304,1.0229,0,0,10.0482,0,9.0864,0,1,0,1,2,0,0,0,0,0,0,0,1,1,0,1,Act1
8.0467,1.2247,1.0412,1,0,2.9528,0,5.6998,0,1,1,1,0,0,0,0,0,0,0,0,1,1,0,0,Act-1
7.7196,1.3132,0.9131,0,0,11.4206,0,11.6281,0,1,1,1,0,0,0,0,0,0,0,0,0,0,0,1,Act1
7.6429,1.393,0.9956,0,1,7.8566,0,4.5113,1,1,1,1,0,2,2,0,1,1,0,0,1,1,0,1,Act1
8.3686,1.4077,1.1424,0,0,7.9287,0,9.4507,1,1,1,1,0,1,1,0,0,1,0,0,0,1,0,1,Act1
7.4766,1.2537,1.0581,0,0,28.8519,0,10.891,1,1,1,1,0,0,0,0,0,0,0,0,0,0,0,1,Act-1
7.5078,1.2537,1.046,0,0,26.5096,0,7.4352,0,1,1,1,0,1,1,0,0,0,0,0,0,1,0,1,Act1
7.9568,1.3364,0.5638,0,0,7.3805,0,7.6223,0,1,1,1,1,0,0,0,1,0,0,0,0,1,0,1,Act1
7.8472,1.3919,0.6488,0,0,6.8354,0,8.5968,1,1,1,1,0,0,0,0,1,0,0,0,1,1,0,1,Act1
7.9861,1.3897,0.5565,0,0,5.5801,0,8.8857,1,1,1,1,0,0,0,0,1,0,0,0,1,1,0,1,Act1
7.9452,1.3646,0.8494,0,0,6.0288,0,8.8857,1,1,1,1,0,2,2,0,1,0,0,1,1,1,0,1,Act1
7.9861,1.3897,0.5565,0,0,5.5688,0,8.8857,1,1,1,1,0,0,0,0,1,0,0,0,1,1,0,1,Act1
7.7986,1.3919,0.6328,0,0,7.1113,0,8.5968,1,1,1,1,0,0,0,0,1,0,0,0,1,1,0,1,Act1
7.8472,1.3919,0.6488,0,0,6.8111,0,8.5968,1,1,1,1,0,0,0,0,1,0,0,0,1,1,0,1,Act1
7.7173,1.4162,0.8547,0,0,12.9979,0,10.5668,1,1,1,1,0,0,0,0,1,0,0,0,1,1,0,1,Act1
7.7173,1.4162,0.7332,0,0,12.8622,0,9.6428,0,1,1,1,0,1,1,0,1,0,0,0,1,1,0,1,Act1
7.7659,1.4162,0.6935,0,0,12.53,0,9.6428,0,1,1,1,0,1,1,0,1,0,0,0,1,1,0,1,Act1
7.7438,1.3931,0.7071,0,0,9.1941,0,8.6203,1,1,1,1,0,0,0,0,1,0,0,0,1,1,0,1,Act1
7.7942,1.3931,0.6609,0,0,9.0015,0,8.6203,1,1,1,1,0,0,0,0,1,0,0,0,1,1,0,1,Act1
7.7302,1.4162,0.7422,0,0,15.034,0,11.0269,0,1,1,1,0,0,0,0,1,0,0,0,1,1,0,1,Act1
7.9838,1.5332,0.965,0,0,20.0779,0,16.3333,1,1,1,1,0,1,1,0,0,0,0,0,1,1,0,1,Act-1
7.4286,1.3414,0,0,1,7.9875,0,3.6372,0,1,0,0,0,0,0,0,0,0,0,0,1,0,0,1,Act-1
7.5167,1.4045,0.8765,0,0,9.4551,0,9.0757,0,1,0,1,0,0,0,0,0,1,0,0,0,1,0,1,Act1
7.8712,1.5357,0.9999,0,0,20.9196,0,15.0505,1,1,1,1,0,0,0,0,0,0,0,0,1,1,0,1,Act1
7.0238,1.2268,1.0156,0,0,10.745,0,7.284,0,1,0,1,0,0,0,0,0,0,0,0,0,1,0,0,Act-1
7.7262,1.2927,0,0,0,7.5419,0,5.7737,0,1,0,0,0,0,0,0,0,1,0,0,0,1,0,0,Act1
7.3571,1.2454,0.8893,0,0,10.5722,0,5.6502,0,1,0,1,0,0,0,0,0,0,0,0,1,0,0,0,Act-1
7.4504,1.0855,0.8783,0,0,0,0,11.1258,0,1,1,1,0,0,0,0,0,0,0,0,1,1,0,0,Act1
7.0167,1,0.8557,0,0,0,0,8.0798,0,1,0,1,0,0,0,0,0,0,0,0,0,0,0,0,Act1
7.7417,1.459,1.0521,0,0,20.0708,0,12.9116,0,1,1,1,0,1,1,0,0,1,0,0,1,1,0,1,Act1
7.6444,1.2841,0.9049,0,1,9.6432,0,8.7139,0,1,1,1,0,0,0,0,0,1,0,0,1,1,0,1,Act1
8.1035,1.3848,0.9333,1,0,10.1659,0,13.4206,1,1,1,1,0,0,0,0,0,0,0,0,1,0,0,1,Act1
7.6667,1.5239,1.0772,0,0,21.9836,0,11.5278,0,1,1,1,0,0,0,0,0,1,0,0,1,0,0,1,Act1
7.4444,1.1467,0.7318,0,0,0,0,7.015,0,1,1,1,0,0,0,1,0,1,0,0,1,1,0,0,Act1
7.5625,1.5149,0.785,0,0,9.3018,0,8.4323,0,1,0,1,0,0,0,0,0,1,0,0,1,1,1,1,Act1
7.5098,1.5086,0.8635,0,1,22.1981,0,7.8354,0,1,0,1,0,0,0,0,0,0,0,0,1,0,0,1,Act-1
8.3244,1.3394,0.9169,0,0,10.8995,0,11.3791,0,1,1,1,0,0,0,0,0,0,0,0,0,1,0,1,Act-1
7.6739,1.3095,0.7746,0,1,7.9397,0,10.1224,1,1,1,1,0,0,0,0,0,1,0,0,0,1,0,1,Act1
7.5944,1.4155,0.9736,0,1,15.6304,0,13.6286,1,1,1,1,0,0,0,0,0,1,0,0,0,1,1,1,Act1
7.7427,1.2019,1.0343,1,0,4.1143,0,7.0015,0,1,1,1,0,0,0,0,0,0,0,0,1,0,0,0,Act1
7.4487,1.1794,0.9196,0,0,10.046,0,13.0735,0,1,1,1,0,0,0,0,1,1,0,0,1,1,0,0,Act-1
7.381,1.2846,0.8732,0,0,7.5397,0,11.259,0,1,1,1,0,0,0,0,0,1,0,0,1,1,0,1,Act1
7.9167,1.3816,1.0814,0,1,7.676,0,10.9344,1,1,1,1,0,0,0,0,1,1,0,0,1,1,0,1,Act1
7.4444,1.2702,0.677,0,0,10.4108,0,3.3889,0,1,0,0,0,0,0,0,0,1,0,0,0,0,0,0,Act-1
7.3958,1.3581,0.8487,0,0,21.0786,0,9.1277,0,1,0,1,0,0,0,0,0,0,0,0,0,0,0,1,Act1
7.425,1.2958,0.9979,0,0,21.0766,0,7.6923,0,1,0,1,0,0,0,0,0,1,0,0,0,0,0,1,Act-1
7.4074,1.3309,0.9228,0,0,20.9624,0,8.1837,0,1,0,1,0,0,0,0,0,0,0,0,0,0,0,1,Act1
7.0513,1,0.6784,0,0,0,0,7.0871,0,1,0,1,0,0,0,0,0,0,0,0,0,0,0,0,Act1
7.6167,1.3338,0.5846,0,0,7.6634,0,8.6011,0,1,1,1,0,0,0,0,1,0,0,0,0,1,0,1,Act1
8.4722,1.4078,0.9891,0,1,6.5336,0,12.0205,0,1,1,1,0,0,0,0,0,1,0,0,1,0,0,1,Act-1
7.4815,1.4281,0,0,0,12.2323,0,3.5446,0,0,0,0,0,0,0,0,0,0,0,0,0,0,0,1,Act-1
7.7037,1.4281,0,0,0,7.7373,0,2.7495,0,0,0,0,0,0,0,0,0,0,0,0,0,1,0,1,Act1
7.6406,1.2557,0.7512,0,0,5.8395,0,7.0856,0,1,0,0,0,0,0,0,0,0,0,0,0,0,0,0,Act1
7.2619,1.2045,0.4454,0,0,0,0,6.2575,0,1,0,0,0,0,0,0,0,0,0,0,0,0,0,0,Act1
7.6818,1.3868,0.9462,0,0,6.3333,0,8.3357,1,1,1,1,0,0,0,0,0,1,0,0,0,1,0,1,Act1
7.3222,1.2381,0.4593,0,0,8.8159,0,4.3367,0,1,0,0,0,0,0,0,0,1,0,0,1,0,0,0,Act-1
7.4286,1.3967,0.652,0,0,16.7559,0,6.6715,0,1,0,0,1,0,0,0,0,0,0,0,0,0,0,1,Act1
7.3846,1.5313,0,0,0,17.1257,0,5.4884,0,1,0,0,0,0,0,0,0,0,0,0,0,0,0,1,Act-1
7.4167,1.4118,0.9971,0,0,15.0676,0,4.8722,0,1,0,1,0,0,0,0,0,1,0,0,0,0,0,1,Act-1
7.4333,1.4652,0,0,0,16.713,0,4.3367,0,0,0,0,0,0,0,0,0,0,0,0,0,0,0,1,Act1
7.4479,1.3265,1.0099,0,0,8.2783,0,3.7204,0,1,1,1,1,0,0,0,0,0,0,0,0,0,0,1,Act1
7.3235,1.3202,1.0347,0,0,8.3361,0,8.5217,0,1,0,1,1,0,0,0,0,0,0,0,0,0,0,1,Act1
7.3467,1.285,1.3551,0,0,3.9474,0,10.7787,0,1,1,1,1,0,0,0,0,1,0,0,0,1,0,1,Act1
7.9435,1.3572,0.829,0,0,13.8964,0,6.6751,0,1,1,1,1,0,0,0,0,0,0,0,1,1,0,1,Act1
7.4275,1.4516,0.9469,0,0,15.9328,0,8.6121,0,1,0,1,0,0,0,0,0,1,0,0,1,1,0,1,Act1
7.9151,1.3685,0.8473,0,0,6.1186,0,12.8021,1,1,1,1,0,2,2,0,1,0,0,1,1,1,0,1,Act1
7.5708,1.3265,0.8444,0,1,7.6034,0,9.3854,0,1,1,1,0,1,1,0,0,1,0,0,1,1,0,1,Act1
8.0435,1.33,0.9416,0,0,12.4749,0,10.8136,0,1,1,1,0,0,0,0,0,0,0,0,0,0,0,1,Act1
7.729,1.3812,0.8804,0,0,14.8046,0,14.0809,0,1,1,1,1,0,0,0,1,1,0,0,0,1,0,1,Act1
7.6667,1.5369,1.1016,0,0,20.261,0,10.2177,0,1,0,1,0,1,1,0,0,1,0,0,1,1,0,1,Act1
7.8527,1.3203,1.0527,0,0,10.0907,0,12.2751,0,1,1,1,0,0,0,0,0,1,0,0,1,1,0,1,Act1
7.4786,1.2318,1.101,0,0,15.5407,0,14.7829,1,1,1,1,0,1,1,0,0,0,0,0,1,1,0,1,Act-1
7.7063,1.2202,0.9107,0,0,9.6788,0,8.8916,0,1,1,1,2,0,0,0,0,1,0,0,1,1,1,0,Act1
7.6505,1.4299,1.0553,0,1,15.1466,0,10.6626,1,1,1,1,0,0,0,0,0,0,0,0,1,0,0,1,Act1
8.1944,1.4191,1.1437,0,1,11.7701,0,9.9497,1,1,1,1,0,0,0,0,0,0,0,0,1,0,0,1,Act1
7.6505,1.4285,1.0393,0,1,15.1564,0,11.3416,1,1,1,1,0,0,0,0,0,0,0,0,1,0,0,1,Act1
8.1944,1.423,1.1597,0,1,11.7399,0,9.9497,1,1,1,1,0,0,0,0,0,0,0,0,1,0,0,1,Act1
7.5797,1.4316,1.0507,0,1,17.7485,0,9.9497,1,1,1,1,0,0,0,0,0,0,0,0,1,0,0,1,Act1
7.918,1.2483,1.0482,0,0,5.8983,0,6.9481,1,1,1,1,0,1,1,0,0,0,0,1,0,1,0,0,Act-1
7.6444,1.5311,1.1035,0,0,20.3168,0,10.9875,0,1,0,1,0,1,1,0,0,1,0,0,1,1,0,1,Act-1
7.596,1.438,0.88,0,0,9.1169,0,9.2792,0,1,1,1,0,0,0,0,0,1,0,0,1,1,0,1,Act1
7.5385,1.2953,1.2537,0,0,10.8094,1,11.4035,1,1,0,1,0,0,0,0,0,0,0,0,1,0,1,1,Act1
7.5769,1.2888,1.0666,0,0,8.2523,1,11.4946,1,1,0,1,0,0,0,0,0,1,0,0,1,1,1,1,Act1
7.5412,1.3822,0.9735,0,0,17.8997,0,14.7648,1,1,1,1,0,1,1,0,0,1,0,0,1,1,0,1,Act1
7.5167,1.383,0.9907,0,0,17.7623,0,13.9425,1,1,1,1,0,2,2,0,0,1,0,0,1,1,0,1,Act1
7.8086,1.2843,0.9734,0,0,7.4933,0,9.775,0,1,1,1,1,0,0,0,0,1,0,0,1,1,1,1,Act1
7.447,1.3232,1.1025,0,0,18.6897,0,11.6794,0,1,1,1,0,0,0,0,0,0,0,0,1,0,0,1,Act1
7.6609,1.5286,1.1056,0,1,13.2649,0,9.724,1,1,0,1,3,0,0,0,0,1,0,0,1,0,0,1,Act-1
7.7625,1.3794,1.1225,0,0,12.4152,0,10.7787,1,1,1,1,0,0,0,0,0,0,0,0,0,1,0,1,Act-1
7.4885,1.4893,1.0258,0,0,15.7725,0,12.5732,1,1,1,1,0,1,1,0,0,1,0,0,1,1,0,1,Act-1
8.1032,1.5211,0.8046,0,0,12.9038,0,15.4128,1,1,1,1,1,0,0,0,0,0,0,0,1,1,0,1,Act-1
7.0196,1,0.8779,0,0,0,0,7.4417,0,1,0,1,0,0,0,0,0,0,0,0,0,1,0,0,Act-1
8.2213,1.357,0.7987,0,0,11.8502,0,11.3037,1,1,1,1,0,0,0,0,0,1,0,0,1,1,0,1,Act1
8.0965,1.391,0.7515,0,0,9.0211,0,3.5446,0,1,1,0,0,0,0,0,0,1,0,0,1,1,1,1,Act1
7.4615,1.4338,0.9904,0,0,18.3527,0,14.0767,1,1,1,1,0,0,0,0,0,0,0,0,1,0,0,1,Act1
8.092,1.4241,0.9335,0,0,11.9734,0,6.7572,0,1,0,1,0,1,1,0,0,1,0,0,1,1,0,1,Act1
7.6902,1.388,1.039,0,0,18.9965,0,13.5624,1,1,1,1,0,0,0,0,0,1,0,0,1,1,0,1,Act1
7.6528,1.3772,1.0668,0,0,27.4902,0,14.8161,1,1,1,1,0,0,0,0,0,0,0,0,0,1,0,1,Act1
7.9144,1.3507,0.9756,0,0,16.7723,0,17.1539,1,1,1,1,0,0,0,0,0,1,0,0,1,1,0,1,Act-1
7.8205,1.4138,0.9573,0,0,11.0391,0,9.8322,1,1,1,1,0,1,1,0,0,1,0,0,0,1,0,1,Act1
7.858,1.4046,1.1743,0,0,17.828,0,11.5866,0,1,0,1,0,0,0,0,0,1,0,0,0,1,0,1,Act1
7.6538,1.4069,1.0881,0,0,20.7828,0,12.8334,0,1,0,1,0,0,0,0,0,1,0,0,0,1,0,1,Act1
8.0259,1.3991,0.9953,0,0,19.0573,0,12.5545,0,1,0,1,0,0,0,0,0,1,0,0,0,1,0,1,Act1
7.4236,1.3795,1.05,0,0,20.7017,0,10.7799,0,1,0,1,1,0,0,0,0,1,0,0,0,1,0,1,Act1
8.408,1.2669,0.8308,0,0,10.3268,0,12.3383,1,1,1,1,0,0,0,0,0,0,0,0,1,0,0,1,Act1
7.9306,1.2669,0.9586,0,0,13.0871,0,13.0596,1,1,1,1,0,0,0,0,0,0,0,0,1,0,0,1,Act1
8.0648,1.5145,0.9978,0,0,23.7479,0,15.7631,0,1,1,1,0,0,0,0,0,1,0,0,1,0,1,1,Act-1
8.2806,1.4103,0.975,0,0,8.3172,0,8.8276,1,1,1,1,0,1,1,0,0,1,0,0,0,1,0,1,Act1
7.7881,1.2512,1.1138,0,0,23.406,0,13.2713,1,1,1,1,0,0,0,0,0,0,0,0,1,1,0,1,Act1
7.6443,1.3722,1.1548,0,0,20.8485,0,13.9774,1,1,1,1,0,0,0,0,0,0,0,0,1,1,0,1,Act1
8.2351,1.3512,0.8355,0,0,6.4763,0,9.8348,0,1,1,1,0,0,0,0,0,1,0,0,0,1,1,1,Act-1
7.6042,1.3315,1.0455,0,0,10.3236,0,9.621,0,1,0,1,0,0,0,0,0,0,0,0,1,0,0,1,Act1
7.5864,1.5219,1.041,0,0,17.1801,1,10.6792,1,1,0,1,0,0,0,0,0,0,0,0,1,0,1,1,Act1
8.087,1.3381,1.1107,0,0,8.3553,1,9.1761,1,1,1,1,0,0,0,0,0,0,0,0,1,0,1,1,Act1
7.7024,1.3129,1.0506,0,0,10.2227,1,9.4092,1,1,0,1,0,0,0,0,0,0,0,0,1,0,1,1,Act1
8.3646,1.3075,0.5818,0,0,6.9141,1,9.0286,1,1,0,1,0,0,0,0,0,0,0,0,1,0,1,1,Act1
7.7672,1.3129,1.0887,0,0,9.743,1,9.4092,1,1,0,1,0,0,0,0,0,0,0,0,1,0,1,1,Act1
7.9524,1.3129,1.0819,0,0,8.3721,1,9.1761,1,1,0,1,0,0,0,0,0,0,0,0,1,0,1,1,Act1
7.7619,1.3129,1.1123,0,0,9.7821,2,9.1761,1,1,0,1,0,0,0,0,0,0,0,0,1,0,1,1,Act1
8.087,1.3333,1.1304,0,0,8.3082,1,8.3733,1,1,1,1,0,0,0,0,0,0,0,0,1,0,1,1,Act1
7.7024,1.3114,1.1448,0,0,10.2387,1,9.621,1,1,0,1,0,0,0,0,0,0,0,0,1,0,1,1,Act1
7.8636,1.3393,1.1933,0,0,9.4481,1,9.0286,1,1,0,1,0,1,1,0,0,0,0,0,1,0,1,1,Act1
8.3646,1.3033,1.2758,0,0,6.8189,1,9.0286,1,1,0,1,0,0,0,0,0,0,0,0,1,0,1,1,Act1
7.7672,1.3114,1.1264,0,0,9.7383,1,9.621,1,1,0,1,0,0,0,0,0,0,0,0,1,0,1,1,Act1
7.9524,1.3114,0.8454,0,0,8.3087,1,8.3733,1,1,0,1,0,0,0,0,0,0,0,0,1,0,1,1,Act1
7.7619,1.3114,1.1294,0,0,9.7792,1,8.3733,1,1,0,1,0,0,0,0,0,0,0,0,1,0,1,1,Act1
8.39,1.3006,0.8686,0,0,7.4662,1,8.3733,1,1,1,1,0,0,0,0,0,0,0,0,1,0,1,1,Act1
7.6728,1.4122,1.0705,0,0,19.7684,1,12.7206,1,1,1,1,0,0,0,0,0,0,0,0,1,0,1,1,Act1
7.6488,1.405,1.0479,0,0,20.2528,1,13.3986,1,1,1,1,0,0,0,0,0,0,0,0,1,0,1,1,Act1
7.8636,1.3436,0.9776,0,0,9.4581,1,9.0286,1,1,0,1,0,0,0,0,0,0,0,0,1,0,1,1,Act1
7.6917,1.3138,1.1024,0,0,12.2698,1,9.0286,1,1,0,1,0,0,0,0,0,0,0,0,1,0,1,1,Act1
8.087,1.3525,1.1943,0,0,8.4207,1,9.2631,1,1,0,1,0,0,0,0,0,0,0,0,1,1,1,1,Act1
7.7024,1.3177,1.1218,0,0,10.1642,1,9.132,1,1,0,1,0,0,0,0,0,0,0,0,1,0,1,1,Act-1
7.8636,1.3565,1.1817,0,0,9.451,1,9.0286,1,1,0,1,0,0,0,0,0,0,0,0,1,0,1,1,Act1
8.3646,1.32,1.1365,0,0,7.0733,1,9.0286,1,1,0,1,0,0,0,0,0,0,0,0,1,0,1,1,Act1
7.6218,1.4532,1.1205,0,0,20.9026,1,10.591,1,1,0,1,0,0,0,0,0,0,0,0,1,0,1,1,Act1
7.7672,1.3177,1.0977,0,0,9.7339,1,9.132,1,1,0,1,0,0,0,0,0,0,0,0,1,0,1,1,Act1
7.6594,1.3008,1.1318,0,0,8.3937,1,9.2071,1,1,1,1,0,0,0,0,0,0,0,0,1,0,1,1,Act1
7.7153,1.2967,1.1878,0,0,7.9727,1,8.1261,1,1,1,1,0,0,0,0,0,0,0,0,1,0,1,1,Act1
7.7464,1.3008,1.2073,0,0,7.911,1,8.1261,1,1,1,1,0,0,0,0,0,0,0,0,1,0,1,1,Act1
7.6319,1.4434,1.1477,0,0,16.9216,1,10.3053,1,1,0,1,0,0,0,0,0,0,0,0,1,0,1,1,Act1
7.7029,1.4126,1.1168,0,0,11.9937,1,10.0946,1,1,1,1,0,0,0,0,0,0,0,0,1,0,1,1,Act1
7.7417,1.3138,1.0589,0,0,9.5356,1,8.2614,1,1,0,1,0,0,0,0,0,0,0,0,1,1,1,1,Act1
7.8802,1.2067,1.0594,0,0,3.4494,2,3.7798,1,1,0,1,0,0,0,0,0,0,0,0,1,1,1,0,Act1
7.9524,1.3129,1.0819,0,0,8.2854,1,8.976,1,1,0,1,0,0,0,0,0,0,0,0,1,0,1,1,Act1
7.6154,1.2953,1.2911,0,0,10.6015,1,8.976,1,1,1,1,0,0,0,0,0,0,0,0,1,0,1,1,Act1
7.7024,1.3114,1.1448,0,0,10.1577,1,9.2792,1,1,0,1,0,0,0,0,0,0,0,0,1,0,1,1,Act1
7.7672,1.3114,1.1264,0,0,9.6573,1,9.2792,1,1,0,1,0,0,0,0,0,0,0,0,1,0,1,1,Act1
8.1967,1.2933,1.0042,0,0,6.3812,1,7.9757,1,1,1,1,0,0,0,0,0,0,0,0,1,0,1,1,Act1
7.7153,1.2967,1.233,0,0,7.8774,1,7.9757,1,1,1,1,0,0,0,0,0,0,0,0,1,0,1,1,Act1
7.7462,1.3418,1.0242,0,0,11.721,2,8.7382,1,1,0,1,0,0,0,0,0,0,0,0,1,1,1,1,Act1
7.7533,1.3266,1.0492,0,0,9.4609,2,7.0218,1,1,1,1,0,0,0,0,0,0,0,0,1,1,1,1,Act1
7.9653,1.2082,0.925,0,0,3.2699,2,3.7893,1,1,0,1,0,0,0,0,0,0,0,0,1,1,1,0,Act1
7.75,1.3114,1.0243,0,0,8.0327,1,9.2792,1,1,0,1,0,0,0,0,0,0,0,0,1,1,1,1,Act1
7.724,1.2469,0.8496,0,0,17.1755,0,15.5992,1,1,1,1,0,1,1,0,0,0,0,0,1,1,0,1,Act1
7.5673,1.2716,0.8638,0,0,10.3512,0,9.621,1,1,1,1,0,0,0,0,0,0,0,0,1,0,0,1,Act1
7.5895,1.3795,1.0416,0,0,19.9781,0,15.2957,1,1,0,1,0,0,0,0,0,0,0,0,1,0,0,1,Act1
7.5489,1.3665,1.0616,0,0,20.6261,0,16.4738,1,1,1,1,0,0,0,0,0,0,0,0,1,0,0,1,Act1
7.5134,1.3549,1.0051,0,0,20.9004,0,18.4253,1,1,1,1,0,0,0,0,0,0,0,0,1,0,0,1,Act-1
7.8828,1.2891,1.144,0,0,8.8067,0,8.8492,0,1,1,1,0,2,2,1,0,1,0,0,1,1,0,1,Act1
7.8838,1.4394,1.0437,0,0,12.0983,0,14.8709,1,1,1,1,0,1,1,0,0,1,0,0,1,1,0,1,Act1
7.6698,1.2863,0.6398,0,0,8.2212,0,11.283,0,1,1,1,0,0,0,0,1,0,0,0,1,0,1,1,Act1
7.7333,1.3946,0.8424,0,1,12.2735,0,12.188,1,1,0,1,0,0,0,0,0,1,0,0,0,0,0,1,Act1
7.5641,1.4152,1.1266,0,0,22.1093,0,14.2035,0,1,1,1,0,1,1,0,1,0,0,0,0,0,0,1,Act1
7.7586,1.3723,1.088,0,0,10.1254,0,6.813,1,1,1,1,0,1,1,0,0,1,0,0,1,1,0,1,Act1
7.6897,1.3156,0.803,0,0,16.715,0,16.4264,0,1,1,1,0,0,0,0,0,0,0,0,0,0,0,1,Act1
8.0556,1.4158,0.9463,0,0,12.0741,0,6.9365,0,1,0,1,0,2,2,0,0,1,0,0,1,1,0,1,Act1
7.7679,1.4229,0.9724,0,0,12.5748,0,11.9282,1,1,1,1,0,3,3,0,0,1,0,0,0,1,1,1,Act1
7.4781,1.3099,1.063,0,0,10.4164,0,8.2562,0,1,0,1,0,0,0,0,0,0,0,0,1,1,1,1,Act1
7.4264,1.3889,0.9903,0,0,42.5691,0,16.8577,0,1,0,1,0,0,0,0,0,1,0,0,1,1,0,1,Act1
7.869,1.2727,0.9047,0,0,13.5402,0,13.3441,1,1,1,1,0,0,0,0,1,0,0,0,1,1,0,1,Act1
7.8436,1.2318,0.8281,0,0,4.759,0,8.093,1,1,1,1,0,0,0,0,0,0,0,0,1,1,0,0,Act1
7.5409,1.2944,0.9137,0,0,8.0973,0,8.0916,0,1,0,1,0,0,0,0,0,0,0,0,0,1,1,1,Act1
7.7471,1.4136,0.9854,1,0,17.7894,0,10.8865,0,1,1,1,0,0,0,0,0,1,0,0,1,1,0,1,Act-1
7.7471,1.4136,0.956,1,0,17.6848,0,10.3999,0,1,1,1,0,0,0,0,0,1,0,0,1,1,0,1,Act1
7.4921,1.1429,0.8032,0,0,6.9411,0,7.3782,0,1,0,1,0,0,0,0,0,0,0,0,1,1,0,0,Act1
7.7273,1.5329,1.1366,0,0,21.4674,0,13.4073,1,1,1,1,0,0,0,0,0,0,0,0,1,1,0,1,Act1
8.1753,1.3082,1.1517,0,0,3.3672,0,11.9888,1,1,1,1,0,0,0,0,0,1,0,0,1,1,0,0,Act1
7.9074,1.303,0.9983,0,0,4.8848,0,6,1,1,1,1,0,2,2,0,0,1,0,0,1,1,1,0,Act-1
7.8655,1.4123,0.9936,0,0,19.0167,0,11.7026,0,1,1,1,0,0,0,0,0,0,0,1,1,0,0,1,Act-1
8.5507,1.1996,2.3368,0,0,2.34,0,3.7798,0,1,0,0,0,0,0,0,0,1,0,0,1,0,0,0,Act1
7.4306,1.3169,1.102,0,0,10.4447,0,5.2718,0,1,0,1,0,0,0,0,0,0,0,0,1,0,0,1,Act1
7.598,1.6161,0.8815,0,1,20.9778,0,10.6051,0,1,1,1,0,1,1,0,0,0,0,0,1,1,0,1,Act1
7.8704,1.247,0.8035,0,0,11.2767,0,13.2197,1,1,1,1,2,1,1,0,1,0,0,0,1,1,0,1,Act1
8.1833,1.2817,1.3107,0,0,12.5056,0,7.09,0,1,0,1,0,0,0,0,0,1,0,0,1,1,0,1,Act1
7.9382,1.3915,0.7319,0,0,18.4503,0,15.4604,1,1,1,1,0,1,1,0,0,0,0,0,1,1,0,1,Act1
7.7,1.4282,0.9201,0,0,21.2091,0,9.9982,1,1,1,1,0,0,0,0,0,0,0,0,1,0,0,1,Act1
7.5994,1.3866,1.0172,0,0,19.7868,0,12.1174,1,1,0,1,0,0,0,0,0,0,0,0,1,0,0,1,Act1
7.6633,1.3592,0.9658,0,0,15.2191,0,11.2873,1,1,1,1,0,0,0,0,0,0,0,0,1,0,0,1,Act1
7.7341,1.3114,1.2296,0,0,10.1953,1,5.2718,1,1,0,1,0,0,0,0,1,0,0,0,1,0,1,1,Act1
7.7531,1.3821,1.0198,0,0,18.7387,0,12.0496,1,1,0,1,0,0,0,0,0,0,0,0,1,0,0,1,Act1
7.6789,1.5786,1.1242,0,0,27.175,0,13.3042,1,1,1,1,2,0,0,0,0,1,0,0,1,1,0,1,Act1
7.6724,1.4701,0.93,0,1,20.2815,0,9.0478,1,1,1,1,0,0,0,0,0,1,0,0,1,1,0,1,Act1
7.8889,1.5448,0.9961,0,0,35.6285,1,18.0175,1,1,1,1,0,1,1,0,0,0,1,1,0,0,0,1,Act1
7.4509,1.3912,1.0479,0,0,31.6063,0,17.8767,0,1,0,1,0,2,2,0,0,1,0,0,1,1,0,1,Act1
7.159,1.2252,0.9497,0,0,18.7367,0,7.5781,0,1,1,1,0,1,1,0,0,0,0,0,0,0,1,1,Act1
7.5748,1.2256,0.8617,0,0,18.8917,0,7.5781,0,1,1,1,0,0,0,0,0,0,0,0,0,0,0,1,Act1
7.6667,1.3114,1.1275,0,0,5.3828,0,8.8276,0,1,1,1,0,0,0,1,0,0,0,0,0,0,0,0,Act-1
8.2725,1.3481,1.0083,0,0,18.2566,0,12.4059,1,1,1,1,0,0,0,0,0,0,0,0,1,1,0,1,Act1
7.7928,1.4712,0.9593,0,1,16.9276,0,9.8861,1,1,1,1,0,1,1,0,1,1,0,0,1,1,0,1,Act1
7.304,1.2614,0.9347,0,0,31.0527,0,10.9569,0,1,0,1,0,0,0,0,0,0,0,0,0,0,0,1,Act1
7.6838,1.3725,1.0492,0,0,9.1407,0,11.9249,1,1,1,1,2,0,0,0,0,0,0,0,0,1,1,1,Act1
7.7654,1.3979,1.0956,0,0,8.9298,0,11.3945,1,1,1,1,2,1,1,0,0,0,0,0,0,1,1,1,Act1
8.5866,1.1084,0.3226,0,0,0,0,0,0,0,1,0,0,0,0,0,0,0,1,0,0,1,0,0,Act-1
7.3958,1.3433,0.671,0,0,8.0345,0,2.9184,0,1,0,0,0,0,0,0,0,0,0,0,0,0,0,1,Act-1
7.3333,1.2168,0.603,0,0,8.0378,0,5.5516,0,1,0,0,0,0,0,0,0,0,0,1,1,1,1,0,Act-1
7.9333,1.4777,1.0395,0,0,11.3247,0,7.1153,0,1,0,1,0,0,0,0,0,1,0,0,1,1,0,1,Act1
7.5581,1.4478,0.9633,0,1,13.4291,0,9.0478,0,1,0,1,0,1,1,0,0,1,0,0,1,1,0,1,Act1
7.4873,1.3691,1.2043,0,0,21.0591,0,7.4963,0,1,0,1,0,0,0,0,0,0,0,0,1,1,0,1,Act1
7.8021,1.4112,0.916,0,0,19.5576,0,15.8132,0,1,1,1,0,0,0,0,0,0,0,1,1,0,0,1,Act-1
7.8446,1.4112,0.9375,0,0,19.0865,0,15.8132,0,1,1,1,0,0,0,0,0,0,0,1,1,0,0,1,Act-1
7.5679,1.4391,0.8528,0,0,20.1797,0,12.4852,0,1,1,1,0,0,0,0,0,0,0,0,1,0,0,1,Act1
7.8446,1.4136,0.94,0,0,19.2858,0,15.6402,0,1,1,1,0,0,0,0,0,0,0,0,1,0,0,1,Act1
7.5338,1.441,1.0679,0,1,13.4907,0,9.2757,0,1,0,1,0,1,1,0,0,1,0,0,1,1,0,1,Act1
7.7511,1.3602,1.1029,0,1,12.3388,0,7.195,0,1,1,1,1,0,0,0,0,1,0,0,1,0,0,1,Act1
7.7244,1.3226,1.1259,0,0,9.4295,1,9.6759,1,1,1,1,0,1,1,0,0,1,0,0,1,1,1,1,Act1
7.5914,1.3634,1.1835,0,0,17.6549,0,15.3518,1,1,1,1,0,0,0,0,0,0,0,0,1,0,0,1,Act1
7.7667,1.293,1.3155,1,0,7.8674,0,9.6759,1,1,1,1,0,0,0,0,0,0,0,0,1,0,0,1,Act1
7.4691,1.3512,1.3545,0,1,11.8804,0,9.6759,0,1,1,1,0,0,0,0,0,1,0,0,1,0,0,1,Act1
7.6867,1.293,1.1728,0,0,8.0344,1,9.518,1,1,1,1,0,0,0,0,0,0,0,0,1,0,1,1,Act1
7.7244,1.3226,1.0456,0,0,9.5287,2,9.5773,1,1,1,1,0,0,0,0,0,0,0,0,1,1,1,1,Act1
7.7267,1.293,1.1902,0,0,5.8718,1,9.6759,1,1,1,1,0,0,0,0,0,0,0,0,1,1,1,1,Act1
8.1733,1.3381,1.0365,0,0,6.2745,0,6.5975,1,1,1,1,1,0,0,0,1,0,0,0,1,1,0,1,Act1
7.9902,1.4088,0.9605,0,1,17.1528,0,11.1982,1,1,1,1,2,0,0,0,0,1,0,0,1,0,0,1,Act1
8.5515,1.409,0.8865,0,0,12.5646,0,9.3851,1,1,1,1,0,0,0,0,0,0,0,0,0,0,0,1,Act1
7.599,1.4823,0.9157,0,0,20.1638,0,9.7307,1,1,1,1,0,0,0,0,0,0,0,0,1,1,0,1,Act1
7.5262,1.3695,1.1736,0,0,26.1071,0,16.538,1,1,1,1,0,0,0,0,0,0,0,0,1,1,0,1,Act1
8.1296,1.4484,0.922,0,0,18.0091,0,12.3855,1,1,1,1,0,0,0,0,0,1,0,0,1,1,0,1,Act1
8.3784,1.3074,1.7459,0,0,5.2677,0,10.9639,1,1,1,1,0,0,0,0,0,0,0,0,0,1,0,1,Act-1
7.7853,1.2793,0.9652,0,0,5.7584,0,10.951,1,1,1,1,0,0,0,0,0,1,0,0,1,1,0,1,Act1
8.3038,1.2823,0.6073,0,0,12.3391,0,8.9977,1,1,1,1,0,0,0,0,0,0,0,0,1,0,0,1,Act1
7.7101,1.4203,1.079,0,1,14.9833,0,6.3053,0,1,1,1,0,0,0,0,0,1,0,0,1,1,0,1,Act1
7.8356,1.4203,0.9634,0,1,10.2133,0,3.5541,0,1,1,1,0,0,0,0,0,1,0,0,1,1,0,1,Act1
7.8272,1.3937,1.063,0,0,12.1477,0,9.1249,0,1,1,1,1,1,1,0,0,0,0,0,1,0,0,1,Act1
7.5937,1.472,0.8919,0,0,20.172,0,9.3758,1,1,1,1,0,2,2,0,0,1,0,0,1,1,0,1,Act1
7.7361,1.368,1.1942,0,0,13.192,1,6.284,0,1,1,1,0,1,1,0,0,0,0,0,1,0,1,1,Act1
7.6905,1.3868,1.2204,0,0,11.7607,0,5.6755,0,1,1,1,0,0,0,0,0,0,0,0,1,0,0,1,Act1
7.5269,1.5868,0.9271,0,1,22.1173,0,7.4182,0,1,1,1,0,1,1,0,0,1,0,0,1,1,0,1,Act1
7.4861,1.3169,1.0904,0,0,10.3796,0,5.2718,1,1,1,1,0,0,0,0,0,0,0,0,1,0,0,1,Act1
7.7051,1.5247,1.0524,0,0,12.4445,0,7.7527,1,1,1,1,0,0,0,0,0,1,0,0,1,1,0,1,Act1
7.7083,1.4416,0.8856,0,0,14.5547,0,8.2635,1,1,1,1,0,0,0,0,0,1,0,0,1,1,0,1,Act1
7.94,1.3117,0.9161,0,0,9.8459,0,4.5176,0,1,1,1,2,1,1,0,1,0,0,0,1,1,1,1,Act1
7.7809,1.2761,1.1129,0,0,5.7512,0,6.5886,1,1,1,1,0,1,1,0,0,1,0,0,1,1,0,1,Act-1
8.0744,1.3217,1.0083,0,0,13.0977,0,8.7057,1,1,1,1,0,0,0,0,0,0,0,0,0,0,0,1,Act1
8.1601,1.3127,0.9933,0,0,9.7642,0,8.2366,1,1,1,1,0,0,0,0,0,0,0,0,0,0,0,1,Act1
8.2063,1.4091,0.9768,0,0,12.6534,0,10.8298,0,1,1,1,1,0,0,0,0,0,0,0,0,1,0,1,Act1
7.9741,1.4202,0.9475,0,0,14.99,0,10.7796,0,1,1,1,0,0,0,0,0,0,0,0,1,0,0,1,Act1
8.2056,1.1718,0.4142,0,0,1.2964,0,0,1,1,1,0,2,0,0,0,0,0,0,0,0,1,1,0,Act1
7.8737,1.5244,1.1282,0,1,22.7242,0,8.1837,0,1,1,1,1,0,0,0,0,1,0,0,1,1,0,1,Act1
7.2,1,0,0,0,0,0,0,0,0,0,0,0,0,0,0,0,0,0,0,0,1,0,0,Act-1
7.8116,1.4297,0.8374,0,0,15.0147,0,7.8572,0,1,1,1,0,0,0,0,0,0,0,0,0,0,0,1,Act-1
7.5942,1.4101,0.8563,0,0,16.0207,0,8.6819,1,1,1,1,1,0,0,0,0,1,0,0,1,1,0,1,Act1
7.547,1.42,0.9896,0,0,37.0853,0,11.2374,1,1,1,1,0,0,0,0,0,1,0,0,1,1,0,1,Act-1
7.5367,1.0882,0.7326,0,0,0,0,7.9698,0,1,1,1,0,0,0,0,0,0,0,0,0,0,0,0,Act1
7.5313,1.221,1.0738,0,0,8.9731,0,8.1247,0,1,1,1,0,0,0,0,0,0,0,0,1,0,0,0,Act-1
7.8238,1.5073,0.8023,0,1,17.467,0,14.8138,1,1,1,1,0,3,3,0,0,1,0,0,1,1,1,1,Act1
7.6722,1.265,0.5847,0,0,5.9567,0,12.754,0,1,1,1,0,0,0,0,0,0,0,1,0,0,0,0,Act-1
7.9368,1.265,0.9862,0,0,5.9567,0,12.754,0,1,1,1,0,0,0,0,0,0,0,1,0,0,0,0,Act-1
7.8782,1.1733,0.9738,1,0,0,0,12.3688,0,1,1,1,0,0,0,0,0,0,0,0,0,0,0,0,Act1
8.3922,1.4786,1.0303,0,0,0,0,12.4863,0,1,1,1,0,0,0,0,0,0,0,0,0,0,0,0,Act-1
8.119,1.3716,0.9018,1,0,9.7367,0,6.5714,0,1,1,1,0,0,0,0,0,0,0,0,0,0,0,0,Act1
8.0088,1.3864,1.1615,0,0,3.1674,0,10.7276,1,1,1,1,2,0,0,0,0,1,0,0,0,1,1,1,Act-1
7.6444,1.4041,1.3635,0,1,3.1245,0,2,0,1,0,1,0,0,0,0,0,1,0,0,0,1,0,1,Act1
7.55,1.1693,1.2756,0,0,0,0,6.2578,0,1,1,1,0,0,0,0,0,0,0,0,0,0,0,0,Act-1
7.6833,1.0635,0.7605,0,0,0,0,6.9798,0,1,1,1,0,0,0,0,0,0,0,0,0,0,0,0,Act1
7.7101,1.0667,0.992,0,0,0,0,6.9246,0,1,1,1,0,0,0,0,0,0,0,0,0,0,0,0,Act-1
8.0577,1.062,0.7722,0,0,0,0,7.3393,0,1,1,1,0,0,0,0,0,0,0,0,0,0,0,0,Act-1
8.2431,1.2961,1.0742,0,0,6.0737,0,11.2664,0,1,1,1,0,0,0,0,0,0,0,0,0,0,1,1,Act-1
7.68,1.0637,0.6863,0,0,0,0,7.2372,0,1,1,1,0,0,0,0,0,0,0,0,0,0,0,0,Act1
8.0931,1.3915,0.9855,0,0,17.381,0,15.8318,1,1,1,1,0,0,0,0,0,0,0,0,1,0,0,1,Act1
8.0642,1.3042,1.1252,0,0,10.3102,0,9.8076,1,1,1,1,0,1,1,0,0,0,0,0,1,0,0,1,Act1
7.9861,1.2966,1.0043,0,0,12.1757,0,8.6203,1,1,1,1,0,1,1,0,1,0,0,0,1,0,0,1,Act1
8.0208,1.305,1.1221,0,0,12.1668,0,9.5632,1,1,1,1,0,1,1,0,0,0,0,0,1,0,0,1,Act1
7.8551,1.3245,1.1678,0,0,9.5387,1,9.9648,1,1,1,1,0,0,0,0,0,0,0,0,1,0,1,1,Act1
7.78,1.5442,1.1416,0,0,11.1699,0,6.5916,0,1,1,1,2,0,0,0,0,0,0,0,1,1,0,1,Act1
8.0333,1.4405,0.8828,0,0,8.1249,0,10.3723,1,1,1,1,1,0,0,0,0,0,0,0,0,1,0,1,Act1
7.9048,1.3402,1.2196,0,0,7.1432,0,9.2469,0,1,1,1,0,0,0,0,0,0,0,0,0,0,0,1,Act-1
7.558,1.3538,1.0953,0,0,14.5427,0,7.7596,1,1,1,1,1,0,0,0,0,0,0,0,0,1,0,1,Act1
7.5362,1.0671,0.8501,0,0,0,0,7.0052,0,1,1,1,0,0,0,0,0,0,0,0,0,0,0,0,Act-1
7.5652,1.3095,1.0721,0,0,10.4839,0,10.3059,1,1,0,1,0,0,0,0,0,0,0,0,1,0,0,1,Act1
8.3333,1.3896,1.0266,0,0,12.0688,0,8.4742,0,1,1,1,0,0,0,0,0,0,0,0,0,0,0,1,Act1
8.0652,1.3714,1.0482,0,0,15.7211,0,8.9392,0,1,1,1,0,0,0,0,0,0,0,1,0,0,0,1,Act1
7.4722,1.2582,0.7677,0,0,0,0,14.8278,0,1,1,1,0,0,0,0,0,0,0,0,0,0,0,0,Act-1
7.9861,1.2713,0.9557,0,0,18.1254,0,8.7218,0,1,1,1,0,0,0,0,0,0,0,0,1,1,0,1,Act1
8.1167,1.19,1.0477,0,1,1.5194,0,3.7798,1,1,1,1,0,0,0,0,1,1,0,0,0,1,0,0,Act-1
8.0313,1.2304,0.5618,0,0,9.1677,0,5.4273,1,1,1,1,0,0,0,0,0,0,0,0,0,0,0,0,Act-1
8.4518,1.1998,1.4381,0,0,0,0,3.5446,1,1,1,1,0,0,0,0,0,0,0,0,0,0,0,0,Act-1
8.4071,1.205,1.3231,0,0,0,0,3.5446,1,1,1,1,0,0,0,0,0,0,0,0,0,0,0,0,Act-1
8.5,1.2369,0.834,1,0,6.1847,0,5.7737,0,1,1,1,0,0,0,0,0,0,0,0,0,0,0,0,Act-1
8.8889,1.0726,0,1,0,0,0,0,0,0,0,0,1,0,0,0,0,0,0,0,0,0,0,0,Act-1
8.7319,1.096,0.719,1,0,0,4,1,1,1,1,0,0,0,0,0,0,0,0,0,0,0,1,0,Act-1
7.8966,1.3308,0.9973,0,0,1.9156,0,6.0746,1,1,1,1,0,0,0,0,0,0,0,0,0,0,0,0,Act1
8.2344,1.326,0.7546,0,0,13.3567,0,7.9133,0,1,1,1,0,0,0,0,0,0,0,0,1,0,0,1,Act-1
7.7593,1.4089,1.1325,0,0,15.5016,0,12.3033,1,1,1,1,0,1,1,0,0,0,0,0,1,1,0,1,Act1
7.4583,1.2916,0.8715,0,0,19.576,0,11.6701,0,1,1,1,0,0,0,0,0,0,0,0,1,0,0,1,Act1
7.9394,1.3035,1.0219,0,0,17.5371,0,11.3586,1,1,1,1,1,0,0,0,1,0,0,0,1,1,0,1,Act1
8.2643,1.3121,0.9677,0,0,13.2692,0,10.6432,0,1,1,1,1,0,0,0,1,0,0,0,1,1,0,1,Act1
7.8646,1.2248,1.0857,0,0,5.0186,0,11.7845,0,1,1,1,0,0,0,0,0,0,0,0,0,0,0,0,Act1
7.8939,1.5092,1.0833,0,1,18.9088,0,10.2569,1,1,1,1,0,0,0,0,0,1,0,0,1,1,0,1,Act-1
7.6389,1.3114,1.1777,0,0,10.2809,0,8.5597,1,1,0,1,0,0,0,0,0,0,0,0,1,0,0,1,Act1
8.25,1.0448,1.0815,0,0,0,0,3.7204,0,1,1,0,0,0,0,0,0,0,0,0,0,1,0,0,Act-1
7.8674,1.4399,0.7452,0,0,12.9571,0,8.6051,0,1,1,1,1,0,0,0,0,0,0,0,0,0,0,1,Act-1
8.9487,1.0782,0.4277,1,0,0,1,3,1,1,1,0,0,0,0,0,0,0,0,0,0,0,1,0,Act-1
7.9697,1.3191,1.0471,0,1,5.278,0,5.4507,1,1,1,1,0,0,0,0,0,1,0,0,0,0,0,1,Act-1
8.3446,1.188,1.118,0,0,0,0,4.2073,1,1,1,1,0,0,0,0,0,0,0,0,0,1,0,0,Act-1
8.1071,1.1727,0,0,0,0,0,0,1,1,0,0,3,0,0,0,0,0,0,0,0,1,0,0,Act1
8.1594,1.3497,0.8521,0,0,11.116,0,10.2998,1,1,1,1,0,0,0,0,0,0,0,0,0,0,0,1,Act1
8.0245,1.2438,1.0509,0,0,6.7883,0,6.4048,0,1,1,1,0,0,0,0,0,0,0,0,0,0,0,0,Act-1
8.05,1.366,1.1273,0,0,13.6689,0,9.1111,1,1,1,1,0,1,1,0,0,0,0,0,0,0,1,1,Act-1
7.7892,1.4139,0.9351,0,0,20.2415,0,12.8332,0,1,1,1,1,0,0,0,0,0,0,0,1,1,0,1,Act1
7.8611,1.3161,1.1455,0,0,9.6647,1,10.0037,1,1,1,1,0,0,0,0,0,0,0,0,1,0,1,1,Act-1
7.7742,1.5451,0.9246,0,0,23.0069,0,13.6163,0,1,1,1,0,0,0,0,0,1,0,0,1,0,0,1,Act1
8.2029,1.3783,1.0214,0,0,12.643,0,10.898,1,1,1,1,0,0,0,0,0,0,0,0,0,0,0,1,Act1
7.7588,1.5605,0.9857,0,0,30.1243,0,13.9167,1,1,1,1,0,0,0,0,0,1,0,0,1,1,0,1,Act1
7.8063,1.5361,1.0078,0,0,25.2474,0,12.8631,1,1,1,1,0,0,0,0,0,1,0,0,1,1,0,1,Act1
7.7838,1.4683,1.006,0,0,25.7268,0,12.8631,1,1,1,1,0,0,0,0,0,1,0,0,1,1,0,1,Act1
8.0432,1.4258,0.9733,0,0,14.6473,0,10.1736,1,1,1,1,0,2,2,0,0,0,0,0,0,1,0,1,Act-1
8.2588,1.3262,1.1462,0,0,9.0815,0,6.5291,0,1,1,1,1,0,0,0,0,0,0,0,0,0,0,1,Act-1
7.7346,1.5453,1.1369,0,1,21.1022,0,8.9404,0,1,1,1,0,1,1,0,0,0,0,0,1,0,0,1,Act1
7.6494,1.435,1.1072,0,0,14.1204,0,8.9524,1,1,1,1,0,0,0,0,0,0,0,0,1,1,0,1,Act1
8.2639,1.186,0.478,0,0,1.2646,0,1,1,1,1,1,2,0,0,0,0,0,0,0,0,1,0,0,Act1
8.1086,1.5293,0.8702,0,0,16.4572,0,15.3946,1,1,1,1,2,1,1,0,0,0,0,0,1,1,0,1,Act1
8.1092,1.5661,1.0246,0,0,15.7932,0,9.5152,0,1,0,1,0,0,0,0,0,1,0,0,1,1,0,1,Act1
8.3446,1.188,1.118,0,0,0,0,4.2073,1,1,1,1,0,0,0,0,0,0,0,0,0,1,0,0,Act-1
8.368,1.2566,0.7859,0,0,0,0,4.2073,1,1,1,1,0,0,0,0,0,0,0,0,0,1,0,0,Act1
8.2829,1.2676,0.8339,0,0,1.7341,0,3.5446,1,1,1,0,0,0,0,0,0,0,0,0,0,0,0,0,Act1
8.8153,1.2696,0.18,0,0,3.3178,0,6,1,1,1,0,0,0,0,0,0,0,1,0,0,0,0,0,Act-1
8.5128,1.2849,1.2099,0,0,5.9692,0,5.4273,0,1,1,0,0,0,0,0,0,0,0,0,0,0,0,0,Act-1
8.4048,1.2727,1.084,1,0,6.7204,0,5.7737,0,1,1,1,0,0,0,0,0,0,0,0,0,0,0,0,Act-1
8.1417,1.1792,0.7504,0,0,3.6099,0,11.8272,0,1,1,1,0,0,0,0,0,0,0,1,1,0,0,0,Act-1
8.2727,1.2809,0.3596,0,0,6.3095,0,5,1,1,1,0,0,0,0,0,0,0,0,0,0,0,0,0,Act-1
8.2029,1.3783,1.0214,0,0,12.643,0,10.898,1,1,1,1,0,0,0,0,0,0,0,0,0,0,0,1,Act-1
8.2875,1.3233,1.2271,0,0,7.2622,0,9.2761,0,1,1,1,1,0,0,0,0,1,0,0,0,0,0,1,Act-1
8.5109,1.3717,1.1599,0,0,10.6466,0,8.0941,0,1,1,1,0,0,0,0,0,0,0,0,0,0,0,1,Act-1
7.9405,1.3348,1.0542,0,0,1.6639,0,6.7426,1,1,1,1,0,0,0,0,0,0,0,0,0,0,0,0,Act1
7.625,1.3052,1.1111,0,0,10.3302,0,10.4343,0,1,1,1,0,0,0,0,0,0,0,0,1,1,0,1,Act1
8.3029,1.2502,0.7332,0,0,0,0,5.6316,1,1,1,1,0,0,0,0,0,0,0,0,0,0,0,0,Act-1
7.9839,1.5363,1.0345,0,1,18.5606,0,10.2569,1,1,1,1,0,0,0,0,0,1,0,0,1,1,0,1,Act1
8.6012,1.2755,0.7588,0,0,5.574,0,5,0,1,1,0,0,0,0,0,0,0,0,0,0,0,1,0,Act-1
8.1106,1.1592,0.9778,0,0,16.0021,0,16.4862,0,1,1,1,0,0,0,1,0,0,0,0,0,0,0,1,Act-1
8.7222,1.0629,0.1928,0,0,0,0,1,0,1,1,1,0,0,0,0,0,0,0,0,0,0,0,0,Act-1
8.0833,1.1057,0.7394,0,0,0,0,8.1578,0,1,1,1,0,0,0,0,0,0,0,0,0,0,0,0,Act1
7.7411,1.0663,0.7453,0,0,0,0,7.8108,0,1,1,1,0,0,0,0,0,0,0,0,0,0,0,0,Act1
7.7708,1.1175,0.7346,0,0,0,0,7.8108,0,1,1,1,0,0,0,0,0,0,0,0,0,0,0,0,Act-1
7.8056,1.1159,0.9458,0,0,0,0,7.9963,0,1,1,1,0,0,0,0,0,0,0,0,0,0,0,0,Act-1
7.8462,1.1175,0.8558,0,0,0,0,7.8536,0,1,1,1,0,0,0,0,0,0,0,0,0,0,0,0,Act1
8.0887,1.1789,0.8725,0,0,24.2743,0,16.9491,0,1,1,1,0,0,0,1,0,0,0,0,0,0,0,1,Act1
7.4024,1.0087,0.9105,0,0,0,0,11.8129,1,1,1,1,0,1,1,0,0,0,0,1,1,0,0,0,Act-1
7.4125,1.0089,0.9186,0,0,0,0,11.8129,1,1,1,1,0,1,1,0,0,0,0,1,1,0,0,0,Act1
7.4302,1.0077,0.8905,0,0,0,0,8.4641,1,1,1,1,0,1,1,0,0,0,0,1,1,0,0,0,Act-1
7.5867,1.0631,0.9761,0,0,0,0,7.4364,0,1,1,1,0,0,0,0,0,0,0,0,0,0,0,0,Act1
7.6775,1.1771,1.028,0,0,0,0,7.3543,0,1,1,1,0,0,0,0,0,0,0,0,0,0,0,0,Act1
7.8221,1.0727,0.8847,0,0,0,0,11.6595,0,1,1,1,0,0,0,0,0,0,0,1,0,0,0,0,Act1
7.9697,1.3632,0.9414,0,0,14.8239,0,7.2186,0,1,1,1,0,0,0,0,1,0,0,0,0,0,1,1,Act-1
7.9545,1.2757,0.6243,0,0,9.7271,0,5.4273,0,1,1,0,0,0,0,0,0,0,0,0,0,0,0,0,Act-1
8.1667,1.123,1.0995,0,0,0,0,12.3434,0,1,1,1,0,0,0,0,0,0,0,0,0,0,0,0,Act1
8.5256,1.0943,0.9056,0,0,0,0,3,1,1,1,1,0,0,0,0,1,0,0,0,1,1,0,0,Act-1
8.5256,1.0943,0.9056,0,0,0,0,3,1,1,1,1,0,0,0,0,1,0,0,0,1,1,0,0,Act-1
8.484,1.0393,0.9927,0,0,0,0,7.628,0,1,1,1,0,0,0,0,0,0,0,0,0,0,0,0,Act-1
7.424,1.1731,0.7017,0,0,0,0,17.1371,0,1,1,1,0,0,0,0,0,0,0,0,0,0,0,0,Act-1
7.8712,1.2122,0.9468,0,0,1.8365,0,9.1719,0,1,1,1,0,0,0,0,0,0,0,0,0,0,0,0,Act-1
7.9626,1.0267,0.8968,0,0,0,0,16.7945,0,1,1,1,0,0,0,0,0,0,0,0,1,0,0,0,Act-1
7.7333,1.2242,0.698,0,0,3.8568,0,6.5573,0,1,1,1,0,0,0,0,0,0,0,0,0,0,0,0,Act-1
7.7968,1.032,0.8911,0,0,0,0,16.548,0,1,1,1,0,0,0,0,0,0,0,0,1,0,0,0,Act-1
7.9295,1.2629,0.8266,0,0,8.4335,0,9.6477,1,1,1,1,0,0,0,0,0,0,0,0,0,0,0,1,Act1
7.9074,1.3574,0.9991,0,0,22.2375,0,9.2937,0,1,1,1,0,0,0,0,0,0,0,0,0,0,0,1,Act-1
8.0242,1.3352,1.086,0,0,20.2293,0,10.4331,0,1,1,1,0,0,0,0,0,0,0,0,1,0,0,1,Act-1
7.4483,1.2087,0.9251,0,0,8.2123,0,9.1869,0,1,1,1,0,0,0,0,0,0,0,0,1,0,0,0,Act-1
7.6196,1.1699,1.1274,0,0,6.1832,0,7.7018,0,1,1,1,0,0,0,0,0,0,0,0,0,0,0,0,Act1
8,1.2824,0,0,0,7.3853,0,5.493,0,1,0,0,0,0,0,0,0,0,0,0,0,0,0,0,Act-1
8.3636,1.2824,0,0,0,6.0864,0,5.4507,0,1,0,0,0,0,0,0,0,0,0,0,0,0,0,0,Act-1
8.6667,1.2988,0,0,0,5.8085,0,5.4273,0,1,0,0,0,0,0,0,0,0,0,1,0,0,0,0,Act-1
8.4921,1.3742,1.0302,0,0,7.2123,0,7.2396,1,1,1,1,0,0,0,0,0,0,0,0,0,1,0,1,Act1
8.5897,1.2988,0,0,0,5.9788,0,5.4273,0,1,0,0,0,0,0,0,0,0,0,0,0,0,0,0,Act-1
8.3385,1.1021,0.8959,0,0,0,0,8.8029,0,1,1,1,0,0,0,0,0,0,0,0,0,0,0,0,Act1
8.1747,1.1036,1.0002,0,0,0,0,8.6516,0,1,1,1,0,0,0,0,0,0,0,0,0,0,0,0,Act1
8.2056,1.1053,0.8316,0,0,0,0,8.486,0,1,1,1,0,0,0,0,0,0,0,0,0,0,0,0,Act-1
8.0259,1.107,0.9462,0,0,0,0,8.2848,0,1,1,1,0,0,0,0,0,0,0,0,0,0,0,0,Act-1
8.0374,1.0717,0.9432,0,0,0,0,8.2848,0,1,1,1,0,0,0,0,0,0,0,0,0,0,0,0,Act1
7.9914,1.0647,0.9384,0,0,0,0,8.2848,0,1,1,1,0,0,0,0,0,0,0,0,0,0,0,0,Act-1
8.3286,1.1028,0.9785,0,0,0,0,9.5596,0,1,1,1,0,0,0,0,0,0,0,0,0,0,0,0,Act1
7.9141,1.1297,0.9914,0,0,0,0,9.243,1,1,1,1,0,0,0,0,0,0,0,0,0,0,0,0,Act-1
7.9792,1.0864,0.8656,0,0,0,0,10.71,0,1,1,1,0,0,0,0,0,0,0,0,0,0,0,0,Act1
7.7407,1.068,0.9609,0,0,0,0,8.0901,0,1,1,1,0,0,0,0,0,0,0,0,0,0,0,0,Act1
8.5778,1.2564,0.9392,0,0,2.5749,0,7.1613,1,1,1,1,0,0,0,0,0,0,0,0,0,1,0,0,Act-1
8.0942,1.3266,1.1947,0,1,3.2052,0,3.7798,1,1,1,1,0,0,0,0,0,1,0,0,0,1,1,1,Act-1
8.6222,1.0659,1.3222,0,0,0,0,1.8899,0,1,1,1,0,0,0,0,0,0,0,0,0,0,0,0,Act1
8.3036,1.1916,0.9841,0,0,6.7782,0,6.3053,1,1,1,1,2,0,0,1,0,0,0,1,0,0,0,0,Act-1
8.2885,1.1661,0.9523,1,0,5.5422,0,10.7226,1,1,1,1,1,0,0,1,0,0,0,0,0,0,0,0,Act-1
8.5185,1.1054,0.7359,1,0,0,1,3,0,1,1,1,1,0,0,1,0,0,0,0,0,0,1,0,Act-1
8.6087,1.12,0.9892,1,0,0,0,6,1,1,1,1,1,0,0,1,0,0,0,0,0,1,0,0,Act-1
8.0185,1.166,0.5412,0,0,5.5201,0,10.7226,1,1,1,1,1,0,0,1,0,0,0,1,0,0,0,0,Act-1
8.3103,1.0955,0.5993,1,0,0,0,10.3643,1,1,1,1,1,1,1,1,0,0,0,1,0,0,1,0,Act-1
8.1488,1.155,0.949,1,0,9.0803,0,13.3444,1,1,1,1,0,0,0,0,0,0,0,0,0,0,0,0,Act-1
8.3158,1.222,0.8118,1,0,7.004,0,9.0474,0,1,1,1,0,0,0,0,0,0,0,0,0,0,0,0,Act1
7.7912,1.5023,1.0023,0,0,10.9341,0,8.8153,0,1,1,1,0,0,0,0,0,1,0,0,1,1,1,1,Act1
8.2593,1.3845,0.8412,0,0,13.5849,0,7.5234,0,1,1,1,0,0,0,0,0,0,0,1,1,0,0,1,Act1
8.1667,1.3746,1.2414,0,0,15.5469,0,7.8477,0,1,1,1,0,0,0,0,0,0,0,1,0,0,0,1,Act-1
7.8686,1.1483,0.5129,0,0,8.9036,0,9.8598,1,1,1,1,1,0,0,1,0,0,0,1,0,0,0,0,Act1
8.0088,1.304,0.925,1,0,7.3931,0,8.2697,0,1,1,1,0,0,0,0,0,0,0,0,0,0,0,0,Act-1
8.1389,1.3432,1.2038,1,0,12.3666,0,8.0585,0,1,1,1,0,0,0,0,0,0,0,0,0,0,0,1,Act1
8.1389,1.3359,0.8481,1,0,12.2089,0,7.6742,0,1,1,1,0,0,0,0,0,0,0,0,0,0,0,1,Act-1
7.6667,1.3513,1.0158,1,0,12.487,0,7.3145,0,1,1,1,0,0,0,0,0,0,0,0,1,0,0,1,Act-1
8.0185,1.2263,0.81,1,0,7.599,0,7.6318,0,1,1,1,0,0,0,0,0,0,0,0,0,0,0,0,Act-1
7.9532,1.485,1.2937,1,0,11.3657,0,7.5121,0,1,1,1,0,0,0,0,0,0,0,0,0,0,0,1,Act1
7.6857,1.4497,0.9839,0,1,13.3332,0,13.5918,1,1,1,1,1,4,4,0,0,0,0,0,1,1,0,1,Act1
7.6042,1.2708,0.8293,0,0,17.596,0,12.0567,0,1,1,1,0,0,0,0,0,0,0,0,0,0,0,1,Act1
7.5714,1.3903,0.9786,0,0,20.0631,0,11.4783,0,1,1,1,0,0,0,0,0,0,0,0,0,0,0,1,Act1
7.5367,1.3401,1.0924,0,0,14.4117,0,7.681,0,1,0,1,0,0,0,0,0,0,0,0,1,1,0,1,Act1
7.7245,1.6121,1.1438,0,0,27.3061,0,14.2442,0,1,1,1,0,0,0,0,0,0,0,0,1,1,0,1,Act1
7.8636,1.3402,0.6704,0,0,9.0986,0,5.554,0,1,0,1,0,2,2,0,0,0,0,0,0,1,0,1,Act1
7.8088,1.3501,0.9436,0,0,14.0055,0,6.0982,1,1,0,1,0,0,0,0,0,0,0,0,0,0,0,1,Act1
7.9212,1.2426,1.0674,0,0,17.2027,0,12.1848,1,1,1,1,0,0,0,0,0,0,0,0,0,0,1,1,Act1
7.7432,1.2715,0.9465,1,0,27.3051,0,16.4689,1,1,1,1,0,0,0,0,0,0,0,0,0,0,0,1,Act-1
7.8013,1.3181,0.7548,0,0,9.5987,0,6.4474,0,1,0,0,0,0,0,0,0,0,0,1,0,0,0,0,Act-1
7.3704,1.2908,0.9617,0,0,15.9807,0,9.6844,0,1,1,1,0,0,0,0,0,0,0,0,0,0,0,1,Act1
7.8523,1.1929,1.0991,0,0,5.6774,0,6.4826,0,1,1,1,0,0,0,0,0,0,0,1,0,0,1,0,Act-1
7.4881,1.2033,1.0425,0,0,8.318,0,9.1569,0,1,1,1,0,0,0,0,0,0,0,1,1,0,1,0,Act1
7.6786,1.1577,1.3362,0,0,0,2,1,1,1,1,1,1,0,0,0,0,1,0,1,1,1,1,0,Act-1
8.0938,1.1338,1.1595,0,0,8.8653,0,10.9174,1,1,1,1,1,0,0,1,0,0,0,0,0,0,1,0,Act-1
8.107,1.2863,0.7955,0,1,2.8551,1,4.3671,1,1,1,1,0,0,0,0,0,1,1,0,0,1,1,1,Act1
7.7402,1.2759,1.0472,0,0,5.7352,0,6.6477,0,1,1,1,0,0,0,0,0,0,0,0,0,0,0,0,Act1
7.6313,1.5171,0.9496,0,1,17.5477,0,14.675,1,1,1,1,0,2,2,0,1,1,0,0,1,1,0,1,Act-1
8.0495,1.379,1.0925,0,0,16.9674,0,11.3269,1,1,1,1,0,0,0,0,0,0,0,0,1,1,0,1,Act1
7.6759,1.491,0.7037,0,2,20.6482,0,9.3501,1,1,1,1,0,0,0,0,0,1,0,0,1,1,0,1,Act1
7.6371,1.3572,0.8739,0,0,18.082,0,15.5769,1,1,1,1,1,0,0,0,0,1,0,0,1,1,0,1,Act1
7.5278,1.4191,1.2569,0,1,16.3236,0,13.5905,1,1,1,1,0,0,0,0,0,0,0,0,1,0,0,1,Act1
7.72,1.2868,0.6317,0,0,14.9935,0,10.7545,0,1,1,1,0,0,0,0,0,0,0,0,1,0,0,1,Act1
7.6058,1.4083,0.7112,0,0,14.0919,0,11.4045,0,1,1,1,0,0,0,0,1,0,0,0,0,1,0,1,Act-1
7.8621,1.3744,0.6108,0,0,10.5894,0,11.8134,0,1,1,1,0,0,0,0,0,0,0,0,0,1,0,1,Act-1
7.5095,1.2652,0.9368,0,0,28.7021,0,16.6469,1,1,1,1,0,0,0,0,0,0,0,0,0,0,0,1,Act-1
7.388,1.2878,0.6747,0,0,28.3597,0,14.1867,0,1,0,1,0,0,0,0,0,0,0,0,0,0,0,1,Act-1
7.5482,1.241,0.9837,0,0,7.8348,0,8.2836,0,1,0,1,0,0,0,0,0,0,0,0,0,0,0,0,Act1
7.9886,1.3871,1.2222,0,0,9.3008,0,8.1075,0,1,1,1,0,0,0,0,0,0,1,1,0,0,0,1,Act1
8.2952,1.5227,1.1055,0,0,9.665,0,11.3545,0,1,1,1,1,2,2,0,0,0,0,1,1,1,1,1,Act1
8,1.3152,0.5831,0,0,8.1887,0,7.9645,1,1,1,1,1,0,0,0,0,0,0,0,0,1,0,1,Act1
7.9242,1.1007,0.9417,0,0,0,0,12.5446,0,1,1,1,0,0,0,0,0,0,0,0,0,0,0,0,Act1
7.9737,1.0891,0.9729,0,0,0,0,12.9753,0,1,1,1,0,0,0,0,0,0,0,0,0,0,0,0,Act1
7.5714,1.6425,1.2635,0,0,23.5887,0,14.9875,0,1,1,1,0,4,4,0,0,0,0,0,1,1,0,1,Act-1
7.4,1.2693,0.9135,0,0,19.1946,0,13.7044,0,1,1,1,0,0,0,0,0,0,0,1,0,0,0,1,Act-1
7.4094,1.3112,0.9001,0,0,14.2629,0,10.4163,0,1,0,1,0,0,0,0,0,1,0,0,0,1,0,1,Act1
7.5618,1.4225,1.0846,0,1,7.7378,0,8.5809,1,1,1,1,1,0,0,0,0,1,0,0,0,1,1,1,Act1
7.7077,1.4534,0.6453,0,0,8.9702,0,7.4325,0,1,0,1,0,0,0,0,0,1,0,0,1,1,1,1,Act1
7.8384,1.2678,0.9757,0,0,20.1355,1,17.186,1,1,1,1,0,1,1,0,0,0,0,0,0,1,1,1,Act-1
7.7204,1.226,1.0285,0,0,25.1596,0,15.88,1,1,1,1,0,2,2,0,0,0,0,0,0,1,0,1,Act-1
7.7204,1.226,1.0285,0,0,25.1596,0,15.88,1,1,1,1,0,2,2,0,0,0,0,0,0,1,0,1,Act-1
7.6638,1.1107,0.738,1,0,0,0,9.5956,0,1,1,1,0,0,0,0,0,0,0,0,0,0,0,0,Act-1
7.9887,1.0284,1.0244,0,0,0,1,11.4722,1,1,1,1,0,0,0,0,1,0,0,0,0,1,1,0,Act-1
7.7738,1.2141,1.0764,0,0,5.5831,0,8.1336,0,1,1,1,0,0,0,0,0,0,0,0,0,0,0,0,Act1
7.7083,1.1753,1.1479,0,0,7.1859,0,9.2766,1,1,1,1,0,1,1,0,1,0,0,0,0,0,0,0,Act-1
8.6306,1.2032,0.7751,0,0,2.0807,0,7.2121,0,1,0,1,0,0,0,0,0,0,0,0,0,0,1,0,Act1
7.9395,1.2114,0.8562,0,0,3.2734,0,6.3339,0,1,0,1,0,0,0,0,0,0,0,0,0,0,1,0,Act-1
8.0343,1.2109,0.8544,0,0,4.759,0,5.5432,0,1,0,1,0,0,0,0,0,0,0,0,0,0,0,0,Act-1
7.7685,1.2205,1.0958,0,0,7.3669,0,6.7005,0,1,0,1,0,0,0,0,0,0,0,0,0,0,0,0,Act-1
7.875,1.1929,1.0627,0,0,5.6532,0,6.4826,0,1,1,1,0,0,0,0,0,0,0,0,0,0,0,0,Act-1
7.8214,1.2141,0.934,0,0,5.5939,0,7.186,0,1,1,1,0,0,0,0,0,0,0,0,0,0,0,0,Act-1
7.912,1.2562,0.893,0,0,6.9966,0,5.5432,0,1,1,1,0,0,0,0,0,0,0,0,0,0,0,0,Act-1
7.5119,1.2033,1.0081,0,0,8.286,0,9.1569,0,1,1,1,0,0,0,0,0,0,0,0,1,0,0,0,Act-1
7.6413,1.1977,1.0822,0,0,7.5438,0,9.9298,0,1,1,1,0,0,0,0,0,0,0,0,0,0,0,0,Act-1
7.8442,1.2931,1.3494,0,0,5.5332,0,7.1251,1,1,1,1,2,0,0,0,0,0,0,0,1,0,1,1,Act1
7.9236,1.4623,0.8015,0,0,12.5593,0,8.9678,0,1,1,1,0,0,0,0,0,1,0,0,1,1,1,1,Act1
7.7672,1.5198,0.9727,0,0,10.9499,0,9.4133,0,1,1,1,2,0,0,0,0,0,0,0,1,1,0,1,Act1
7.9801,1.3997,0.7747,0,0,15.8479,0,15.8224,1,1,1,1,0,0,0,0,0,0,1,0,0,1,0,1,Act-1
8.2685,1.1437,0.9267,0,0,0,0,4.4669,0,1,1,0,0,0,0,0,0,0,0,1,0,0,0,0,Act-1
7.7432,1.2715,0.9465,1,0,27.3051,0,16.4689,1,1,1,1,0,0,0,0,0,0,0,0,0,0,0,1,Act1
7.7034,1.4372,0.9372,0,1,13.3859,0,8.03,1,1,1,1,1,4,4,0,0,0,0,0,1,1,0,1,Act1
7.5208,1.007,1.031,0,0,0,0,11.1513,1,1,1,1,0,0,0,0,0,0,0,0,0,0,1,0,Act1
8.2917,1.0304,1.2022,0,0,0,0,6.5751,1,1,1,1,2,0,0,0,0,0,0,0,0,1,0,0,Act-1
8.7611,1.0448,0.9418,1,0,0,0,3.7798,1,1,1,0,0,0,0,0,0,0,0,0,0,0,0,0,Act-1
8.4821,1.0248,1.0286,0,0,0,0,3.7798,1,1,1,0,0,0,0,0,0,0,0,0,0,0,0,0,Act-1
8.7135,1.0415,0.8762,0,0,0,0,4.5032,1,1,1,1,0,0,0,0,0,0,0,1,0,0,0,0,Act-1
8.1818,1.0225,0.0001,0,0,0,0,5.0763,0,1,1,0,0,0,0,0,0,0,0,0,0,0,0,0,Act-1
8.6042,1,0,0,0,0,0,1.9601,0,0,0,0,0,0,0,0,0,0,0,0,0,0,0,0,Act1
7.7141,1.5968,0.9967,0,0,26.378,0,15.3589,0,1,1,1,0,0,0,0,0,0,0,1,0,0,0,1,Act-1
8.2725,1.2452,1.2134,1,0,10.4083,0,11.7378,1,1,1,1,1,1,1,1,0,0,0,1,0,1,1,1,Act-1
8.1142,1.2095,1.311,1,0,7.2076,0,7.4305,0,1,1,1,0,0,0,0,0,0,0,0,1,0,0,0,Act-1
8.0744,1.3221,1.1732,1,0,13.8424,0,12.4491,0,1,1,1,0,0,0,0,0,0,0,0,0,0,0,1,Act1
8.6636,1.0419,0,1,0,0,0,1,0,0,0,0,1,0,0,0,0,0,0,0,0,0,1,0,Act-1
8.6047,1.0532,0,1,0,0,0,1,0,0,0,0,2,0,0,0,0,0,0,0,0,0,0,0,Act1
7.5357,1.2958,1.1158,0,0,8.649,0,11.3667,0,1,1,1,0,0,0,0,0,0,0,0,0,0,0,1,Act-1
7.5825,1.5091,0.9992,0,0,23.6192,0,12.2378,0,1,0,1,0,0,0,0,0,0,0,0,1,1,0,1,Act1
7.6923,1.044,1.0792,0,0,0,0,7.6491,0,1,1,1,0,0,0,0,0,0,0,0,0,0,0,0,Act-1
7.8218,1.2558,0.8207,0,0,24.6072,0,18.8875,1,1,1,1,0,2,2,0,0,0,0,0,1,0,0,1,Act-1
7.2902,1.1812,1.1038,0,0,0,0,12.3616,0,1,1,1,0,0,0,0,0,0,0,0,0,0,0,0,Act1
7.6061,1.0325,0,0,0,0,0,5.3375,0,1,0,0,0,0,0,0,0,0,0,0,0,0,0,0,Act1
8.6667,1.048,0,1,0,0,0,1.8899,0,0,0,0,0,0,0,0,0,0,0,0,0,0,1,0,Act-1
8.2333,1.2206,1.109,0,1,1.3738,1,1.8899,1,1,1,1,0,0,0,0,0,1,0,0,0,1,1,0,Act-1
8.1522,1.2309,0.9242,0,1,1.4236,0,1.8899,1,1,1,1,0,0,0,0,0,1,0,0,0,1,1,0,Act-1
7.7439,1.2161,0.8957,0,0,8.4382,0,13.4409,1,1,1,1,0,1,1,0,0,0,0,0,0,1,0,1,Act1
7.8623,1.1578,0.7822,1,0,9.4201,0,11.4547,0,1,1,1,0,0,0,0,0,0,0,0,0,0,0,0,Act1
7.4848,1,0,0,0,0,0,5.3375,0,1,0,0,0,0,0,0,0,0,0,0,0,0,0,0,Act1
7.5929,1.2609,1.0688,0,0,19.9567,0,8.7368,1,1,1,1,0,0,0,0,0,0,0,1,0,0,1,1,Act-1
7.6049,1.336,0.9727,0,0,15.3926,0,10.5152,1,1,1,1,0,0,0,0,0,0,0,1,0,0,0,1,Act1
7.6449,1.1841,0.927,0,0,7.7648,0,6.9386,0,1,1,1,0,0,0,0,0,0,0,1,0,0,1,0,Act-1
7.6481,1.3373,1.0438,0,0,9.7488,0,6.5042,0,1,1,1,0,0,0,0,0,0,0,1,0,0,1,1,Act-1
7.614,1.3764,1.1993,0,0,14.0931,0,7.8272,0,1,1,1,0,0,0,0,0,0,0,1,0,0,1,1,Act-1
7.6442,1.3398,1.2197,0,0,17.2856,0,13.7854,0,1,1,1,0,0,0,0,0,0,0,0,0,0,0,1,Act-1
7.3833,1.9079,0.7806,0,0,0,0,17.8157,0,1,0,1,0,0,0,0,0,0,0,0,0,0,0,0,Act1
7.7917,1.1856,0.8706,0,0,0,0,18.8043,0,1,1,1,0,0,0,0,0,0,0,0,0,0,0,0,Act-1
7.596,1.441,0.7891,0,0,7.1294,0,18.1688,0,1,1,1,0,0,0,0,0,0,0,0,0,0,0,0,Act-1
7.2667,1.3377,0.8973,0,0,0,0,18.8227,0,1,0,1,0,0,0,0,0,0,0,0,0,0,0,0,Act1
7.5,1.262,0.8585,0,0,0,0,18.9479,0,1,1,1,0,0,0,0,0,0,0,0,0,0,0,0,Act1
7.4325,1.2036,0.7353,0,0,5.9805,0,8.4198,0,1,0,1,0,0,0,0,0,0,0,0,0,0,0,0,Act-1
7.9242,1.4492,1.0322,1,0,12.1336,0,16.2439,0,1,1,1,0,0,0,0,0,0,0,0,0,0,0,1,Act1
8.1944,1.3063,0.9622,0,0,10.164,0,6.6324,1,1,1,1,0,0,0,0,0,0,0,0,0,0,0,1,Act1
7.838,1.3546,1.1088,0,0,13.5574,0,12.673,1,1,1,1,0,0,0,0,0,0,0,0,1,0,0,1,Act1
7.8958,1.4528,0.9243,0,0,16.1562,0,12.3977,0,1,1,1,0,0,0,0,0,0,0,0,0,1,0,1,Act1
9.1184,1.2579,1.5701,0,0,2.3381,0,5.5595,0,1,1,0,0,0,0,0,0,0,0,0,0,0,0,0,Act-1
7.8137,1.2375,0.8207,0,0,5.7052,0,5.3366,0,1,1,1,0,0,0,0,0,0,0,0,0,1,0,0,Act-1
7.6083,1.2432,1.124,0,0,8.0538,0,7.6946,0,1,1,1,0,0,0,0,0,0,0,0,1,0,0,0,Act-1
7.8137,1.2451,1.0308,0,0,5.7132,0,5.5516,1,1,0,0,0,0,0,0,0,0,0,0,0,1,0,0,Act-1
8.192,1.0339,0.9448,1,0,0,0,9.9964,1,1,1,1,0,0,0,0,0,0,0,0,0,0,0,0,Act1
7.6556,1.2974,1.1638,0,0,15.9699,0,10.2627,0,1,1,1,0,0,0,0,0,0,0,0,0,0,0,1,Act1
7.7457,1.0836,0.9707,0,0,0,0,12.4458,0,1,1,1,0,0,0,0,0,0,0,0,1,0,0,0,Act1
7.9606,1.2427,0.9793,0,0,16.0865,0,17.5449,1,1,1,1,1,0,0,1,0,0,0,0,0,0,0,1,Act1
7.9606,1.2427,0.9793,0,0,16.0865,0,17.5449,1,1,1,1,1,0,0,1,0,0,0,0,0,0,0,1,Act-1
8.5227,1.0648,0,0,0,0,0,3,0,0,0,0,0,0,0,0,1,0,0,0,0,0,1,0,Act-1
7.9295,1.1335,1.0477,1,0,0,0,13.4749,1,1,1,1,0,0,0,0,0,0,0,0,0,1,0,0,Act1
8.4815,1.0419,0,1,0,0,0,2,0,0,0,0,0,0,0,0,0,0,0,0,0,0,1,0,Act-1
7.4551,1.1362,1.0156,0,0,10.2122,0,11.9045,0,1,1,1,0,0,0,0,0,0,0,0,1,1,0,0,Act-1
8.093,1.2769,1.0861,0,1,26.1428,0,17.7139,1,1,1,1,0,12,12,0,0,0,0,0,0,1,1,1,Act-1
8.2197,1.1836,0.8127,1,0,9.2533,2,8.8165,0,1,1,1,0,0,0,0,0,0,0,0,0,1,1,0,Act-1
8.0714,1.2516,1.0625,0,0,13.3885,0,8.8165,1,1,1,1,0,0,0,0,0,0,0,0,0,1,0,1,Act-1
8.3068,1.197,0.6083,0,0,4.4329,0,8.4895,1,1,1,1,0,0,0,0,0,0,0,0,0,0,0,0,Act-1
8.4943,1.1569,0.7992,2,0,4.2781,0,10.8047,1,1,1,1,0,0,0,0,0,0,0,0,0,0,0,0,Act-1
7.7262,1.2143,0.9006,0,0,8.4477,0,14.1832,1,1,1,1,0,1,1,0,0,0,0,0,0,1,0,1,Act-1
7.75,1.2578,0.8982,0,0,6.1813,0,14.9419,1,1,1,1,0,1,1,0,0,0,0,0,0,1,0,1,Act1
7.75,1.2578,0.8982,0,0,6.1813,0,14.9419,1,1,1,1,0,1,1,0,0,0,0,0,0,1,0,1,Act1
7.875,1.1633,1.0834,0,0,15.0057,0,16.7303,1,1,1,1,0,0,0,0,0,0,0,0,1,0,0,1,Act-1
7.7208,1.3443,1.0623,0,0,11.5444,0,8.4643,1,1,1,1,0,0,0,0,0,1,0,0,1,1,0,1,Act-1
7.8631,1.2382,0,0,0,3.172,0,2.96,1,1,0,0,0,0,0,0,0,1,0,0,0,1,0,0,Act-1
7.9012,1.451,1.0284,0,0,12.5496,0,9.3794,1,1,1,1,0,0,0,0,1,1,0,0,1,1,0,1,Act1
7.75,1.3558,0.8384,0,0,5.6484,1,4.5045,0,1,1,1,0,0,0,0,0,1,0,0,0,1,1,1,Act1
7.6061,1.3472,1.0352,0,1,18.2507,0,10.4137,1,1,1,1,0,0,0,0,0,1,0,0,0,1,0,1,Act1
8.0466,1.3631,1.0177,0,0,11.4973,0,13.4271,1,1,1,1,3,0,0,0,0,0,0,0,0,1,0,1,Act-1
7.7177,1.525,1.1971,0,0,20.4837,0,9.5099,0,1,0,1,0,1,1,0,0,1,0,0,1,1,0,1,Act1
7.638,1.5417,1.2252,0,0,25.3087,0,13.296,0,1,0,1,0,0,0,0,0,1,0,0,1,1,0,1,Act-1
7.7126,1.5385,1.1727,0,0,20.8373,0,11.3125,0,1,0,1,0,1,1,0,0,1,0,0,1,1,0,1,Act1
7.7414,1.5385,1.1808,0,0,20.3619,0,9.1527,0,1,0,1,0,1,1,0,0,1,0,0,1,1,0,1,Act1
7.6897,1.5514,1.1736,0,0,20.8503,0,11.3698,0,1,0,1,1,1,1,0,0,1,0,0,1,1,0,1,Act1
7.6782,1.4241,1.1817,0,0,14.4231,0,8.3013,0,1,0,1,0,1,1,0,0,1,0,0,1,1,0,1,Act1
7.6222,1.4158,1.1777,0,0,17.1007,0,12.9328,0,1,0,1,0,1,1,0,0,1,0,0,1,1,0,1,Act1
7.4635,1.5233,1.0493,0,0,24.7707,0,13.6511,0,1,0,1,0,0,0,0,0,1,0,0,1,1,0,1,Act1
7.4798,1.6492,0.9649,0,0,32.8479,0,13.5727,0,1,0,1,0,0,0,0,0,1,0,0,1,1,0,1,Act-1
7.5149,1.4083,1.3513,0,0,1.5997,0,6.4603,0,1,1,1,0,0,0,0,0,1,0,0,0,1,0,1,Act1
7.7436,1.246,0,0,0,7.9066,0,5.5188,0,1,0,0,0,0,0,0,0,0,0,0,0,0,0,0,Act-1
8.0407,1.3694,1.0297,0,0,24.7057,0,11.1251,0,1,1,1,0,0,0,0,0,0,0,1,1,1,0,1,Act1
8.0407,1.3694,1.0297,0,0,24.7057,0,11.1251,0,1,1,1,0,0,0,0,0,0,0,1,1,1,0,1,Act-1
8.0737,1.1948,1.1736,1,0,3.5387,0,7.604,0,1,1,1,0,0,0,0,0,0,1,0,0,0,0,0,Act1
7.6821,1.1963,0.9773,0,0,25.4227,0,18.8706,1,1,1,1,0,1,1,0,1,0,0,0,0,1,0,1,Act-1
8.3662,1.374,0.8845,1,0,5.4869,0,9.0882,0,1,1,1,2,0,0,0,0,0,0,1,1,1,0,1,Act1
8.3965,1.3782,0.8798,0,0,5.4612,0,9.0882,0,1,1,1,2,0,0,0,0,0,0,1,1,1,0,1,Act-1
7.7019,1.1537,0.9605,0,0,0,0,10.0571,1,1,1,1,0,2,2,0,0,1,0,0,0,1,0,0,Act-1
8.0238,1.2822,0.843,0,0,0,0,8.0531,1,1,1,1,0,0,0,0,0,1,0,0,1,1,0,0,Act1
7.4228,1.2596,1.0036,0,0,12.8321,1,11.4342,0,1,0,1,0,0,0,0,0,0,0,1,0,0,0,1,Act-1
7.4779,1.2691,0.9551,0,0,14.4782,2,13.0632,0,1,1,1,0,0,0,0,0,0,0,1,1,0,0,1,Act-1
7.75,1.2578,0.8982,0,0,6.1813,0,14.9419,1,1,1,1,0,1,1,0,0,0,0,0,0,1,0,1,Act-1
7.6905,1.2382,0.7085,0,0,7.9555,0,6.4141,0,1,0,0,0,0,0,0,0,0,0,0,0,0,0,0,Act-1
7.9778,1.2412,1.0045,0,0,7.736,0,6.7325,0,1,1,1,0,0,0,0,0,0,0,1,0,0,0,0,Act-1
7.9111,1.2412,1.0486,1,0,7.8716,0,6.7325,0,1,1,1,0,0,0,0,0,0,0,0,0,0,0,0,Act-1
7.6742,1.3173,1.0165,0,0,15.489,0,11.9349,1,1,1,1,0,0,0,0,0,0,0,0,0,0,0,1,Act1
7.9524,1.2509,1.2823,1,0,7.8137,0,6.0096,0,1,1,1,0,0,0,0,0,0,0,0,0,0,0,0,Act-1
7.5238,1.0594,0.8988,0,0,0,0,11.2824,0,1,1,1,0,0,0,0,0,0,0,0,0,0,0,0,Act1
7.1845,1,0.8707,0,0,0,0,10.8233,0,1,1,1,0,0,0,0,0,0,0,0,0,0,0,0,Act-1
7.25,1,0.622,0,0,0,0,7.4714,0,1,0,1,0,0,0,0,0,0,0,0,0,0,0,0,Act-1
7.7963,1.3669,1.1198,0,0,8.9596,0,14.5921,1,1,1,1,2,0,0,0,0,1,0,0,0,1,0,1,Act1
8.0057,1.2989,0.8047,0,1,6.4019,0,7.0661,1,1,1,1,0,0,0,0,1,1,0,0,0,1,0,1,Act1
8.2121,1.0423,0.8786,1,0,0,0,6.2421,1,1,1,1,0,0,0,0,0,0,0,0,0,0,0,0,Act-1
8.2292,1.048,0,0,0,0,0,2,0,0,0,0,0,0,0,0,0,0,0,0,0,0,0,0,Act1
7.969,1.2052,0.9518,0,0,15.3249,2,10.3403,1,1,1,1,0,0,0,0,0,0,0,1,0,1,1,1,Act1
7.9364,1.1684,0.976,0,0,15.3263,2,10.8782,1,1,1,1,0,0,0,0,0,0,0,1,0,1,1,1,Act1
8.2108,1.1933,1.0765,0,0,14.2932,2,10.3403,1,1,1,1,0,0,0,0,0,0,1,1,0,1,1,1,Act-1
8.0667,1.1447,1.0295,0,0,6.4973,1,14.1477,1,1,1,1,0,1,1,0,0,0,0,0,0,1,1,0,Act1
8.1509,1.3007,0.7576,0,0,8.4409,0,12.849,1,1,1,1,0,0,0,0,0,0,0,0,1,1,0,1,Act1
7.5648,1.4871,0.7648,0,1,9.9085,0,7.09,0,1,0,1,0,0,0,0,0,1,0,0,0,1,1,1,Act1
7.6878,1.4636,0.6302,0,0,8.921,0,9.5657,0,1,1,1,0,0,0,0,0,1,0,0,1,1,0,1,Act1
7.5208,1.4409,0.8544,0,0,15.9108,0,11.2089,0,1,0,1,0,0,0,0,0,1,0,0,1,1,0,1,Act1
7.9524,1.2417,1.0742,0,0,6.7023,0,6.2421,0,1,0,1,0,0,0,0,0,0,0,0,0,0,1,0,Act1
8.2685,1.0426,0.7718,0,0,0,0,2.5285,1,1,1,1,0,1,1,0,0,0,0,0,0,0,0,0,Act-1
7.6533,1.3006,1.0229,0,0,10.1719,1,11.6085,1,1,1,1,0,0,0,0,0,0,0,0,1,0,1,1,Act1
7.7097,1.2379,0.8622,0,0,14.2428,0,12.7677,0,1,1,1,0,0,0,0,1,0,0,0,0,1,0,1,Act1
7.321,1.2295,0.9535,0,0,21.6413,0,10.1415,0,1,1,1,0,0,0,0,0,0,0,1,0,0,0,1,Act-1
7.6402,1.4161,0.9379,0,2,9.4118,1,12.5973,1,1,1,1,0,2,2,0,0,1,0,0,1,1,1,1,Act-1
7.5467,1.4401,0.992,0,0,24.5926,0,12.5074,0,1,1,1,0,0,0,0,0,0,0,0,0,0,0,1,Act1
7.8643,1.3899,0.9204,0,0,21.9069,0,9.5991,1,1,1,1,0,0,0,0,0,1,0,1,1,0,0,1,Act1
7.8643,1.3926,0.9204,0,0,21.9069,0,9.5991,1,1,1,1,0,0,0,0,0,1,0,0,1,0,0,1,Act-1
7.7958,1.336,1.0033,0,0,10.9548,1,14.991,1,1,1,1,0,3,3,0,1,1,0,0,1,1,1,1,Act1
7.7958,1.336,1.0033,0,0,10.9548,1,14.991,1,1,1,1,0,3,3,0,1,1,0,0,1,1,1,1,Act-1
7.7927,1.3386,0.9811,0,0,12.736,1,14.606,1,1,1,1,0,3,3,0,1,1,0,0,1,1,1,1,Act1
7.7982,1.1998,1.3226,0,0,5.6485,0,7.7336,1,1,1,1,0,0,0,0,1,0,0,0,0,1,0,0,Act-1
8.0889,1.4822,1.0481,1,0,14.2322,0,8.8067,1,1,1,1,0,0,0,0,0,0,0,0,1,0,0,1,Act-1
7.7214,1.4731,1.0773,0,0,14.9678,0,9.4948,0,1,1,1,1,0,0,0,0,1,0,0,1,1,0,1,Act1
7.5962,1.5436,0.6805,0,0,21.3179,0,11.0101,0,1,1,1,0,0,0,0,0,1,0,0,1,1,1,1,Act1
8.1552,1.2367,0.6211,0,0,3.3049,0,7.6095,0,1,0,0,0,0,0,0,0,0,0,0,0,0,0,0,Act-1
7.5965,1.2612,0.9985,0,0,16.6325,0,12.0264,1,1,1,1,0,0,0,0,0,0,0,0,1,1,0,1,Act-1
8.1096,1.2306,0.6351,0,0,3.3339,0,7.2163,0,1,0,0,0,0,0,0,0,0,0,0,0,0,0,0,Act-1
7.8157,1.4543,0.9877,0,1,12.7239,0,9.0218,0,1,1,1,0,0,0,0,0,1,0,0,1,1,0,1,Act1
7.8611,1.4543,1.0386,0,1,10.1261,0,7.5854,0,1,1,1,0,0,0,0,0,1,0,0,1,1,0,1,Act1
7.6912,1.6331,1.0687,0,0,23.0739,0,11.6015,1,1,1,1,0,2,2,0,0,1,0,0,1,1,0,1,Act1
8.225,1.2512,1.0255,0,0,4.8693,0,11.903,0,1,1,1,0,0,0,0,1,0,0,0,1,1,0,0,Act1
7.381,1,0,0,0,0,0,1.8899,0,0,0,0,0,0,0,0,0,0,0,0,0,0,0,0,Act1
7.3657,1.2229,1.1378,0,0,8.7466,0,7.3822,0,1,0,1,0,0,0,0,0,0,0,0,0,0,0,0,Act1
7.9825,1.2156,1.0853,0,0,7.1105,1,6.4571,0,1,1,1,0,0,0,0,0,0,0,0,0,0,1,0,Act-1
7.6404,1.3764,1.1673,0,0,14.0437,0,7.8272,0,1,1,1,0,0,0,0,0,0,0,0,0,0,0,1,Act1
7.8568,1.4026,0.9612,0,0,12.6439,0,10.0365,1,1,1,1,0,1,1,0,0,1,0,0,1,0,0,1,Act-1
8.1343,1.2214,1.1762,0,0,6.6848,1,5.681,0,1,1,1,0,0,0,0,0,0,0,1,0,0,0,0,Act-1
8.1444,1.2207,0.9474,0,0,4.3125,0,5.5516,0,1,1,1,0,0,0,0,0,0,0,0,0,0,0,0,Act1
7.7937,1.2289,1.0461,0,0,7.3598,0,6.8016,0,1,0,1,0,0,0,0,0,0,0,0,0,0,0,0,Act-1
7.5606,1.1827,1.2159,0,0,8.0424,0,11.251,0,1,1,1,0,0,0,0,0,0,0,0,0,0,0,0,Act-1
7.6667,1.1841,0.9105,0,0,7.7287,0,6.9386,0,1,1,1,0,0,0,0,0,0,0,0,0,0,0,0,Act-1
7.6759,1.3373,0.9963,0,0,9.7106,0,6.5042,0,1,1,1,0,0,0,0,0,0,0,0,0,0,0,1,Act-1
8.3302,1.1525,0.8445,0,0,7.9726,0,11.072,1,1,1,1,0,1,1,0,1,0,1,0,1,1,0,0,Act-1
7.9285,1.3591,0.978,0,1,11.6555,1,9.1584,1,1,1,1,0,0,0,0,0,1,0,0,0,1,1,1,Act-1
8.0556,1.154,1.47,0,0,0,0,3.823,0,1,0,1,0,0,0,0,0,0,0,0,0,0,0,0,Act-1
8.3357,1.2738,0.7185,0,0,4.4018,0,16.7081,0,1,1,1,0,0,0,0,0,0,0,0,0,0,0,0,Act1
7.8011,1.1837,0.8818,0,0,10.1407,0,16.8781,0,1,1,1,0,0,0,0,0,0,0,0,0,0,0,0,Act1
7.8175,1.4227,1.0484,0,1,9.1465,0,4.888,0,1,1,1,0,0,0,0,0,1,0,0,1,1,0,1,Act-1
7.6806,1.3033,1.2262,0,0,10.1101,1,10.3492,1,1,1,1,0,0,0,0,0,0,0,0,1,0,1,1,Act1
7.6806,1.3075,1.3344,0,0,10.0138,1,10.8591,1,1,0,1,0,0,0,0,0,0,0,0,1,0,1,1,Act1
7.72,1.3378,0.9841,0,0,11.5827,2,10.8706,1,1,0,1,0,0,0,0,0,0,0,0,1,1,1,1,Act1
7.754,1.3908,1.3251,0,0,14.8257,0,10.469,0,1,1,1,0,0,0,0,0,0,0,0,1,0,0,1,Act1
8.5429,1.0331,0,0,0,0,0,1.8899,0,1,0,0,0,0,0,0,0,0,1,0,0,0,0,0,Act-1
7.8333,1.3486,1.0438,0,1,5.9764,0,4.2073,0,1,1,1,0,0,0,0,0,0,0,0,0,0,0,1,Act1
8.0909,1.0331,0,0,0,0,0,0,1,0,0,0,0,0,0,0,0,0,0,1,0,0,1,0,Act-1
8.1528,1.3482,1.0454,0,0,13.8068,0,11.1113,0,1,1,1,0,0,0,0,0,0,0,0,1,0,0,1,Act1
8.0521,1.363,0.8762,0,0,9.8606,0,5.1543,0,1,1,0,1,0,0,0,1,0,0,0,0,0,1,1,Act1
7.588,1.2118,0.4547,0,0,10.1873,0,5.9429,0,1,0,1,0,0,0,0,0,0,0,0,0,0,0,0,Act1
7.6856,1.2935,0.7663,0,0,19.6716,0,6.9055,1,1,0,1,0,0,0,0,0,0,0,0,0,0,1,1,Act-1
7.369,1.2977,1.2029,0,0,21.65,0,8.5809,0,1,0,1,0,0,0,0,0,0,0,0,0,0,0,1,Act1
7.9653,1.0298,0.5175,0,0,0,0,5.5716,0,1,1,0,0,0,0,0,0,0,0,0,0,0,0,0,Act1
8.0682,1.3114,0.9026,0,0,11.0811,0,9.7105,0,1,1,1,0,0,0,0,0,0,0,0,0,0,0,1,Act1
7.9444,1.3004,0.8938,0,0,10.1861,0,8.9723,0,1,1,1,0,0,0,0,0,0,0,0,0,0,0,1,Act-1
7.9444,1.3004,0.8938,0,0,10.1861,0,8.9723,0,1,1,1,0,0,0,0,0,0,0,0,0,0,0,1,Act-1
7.4969,1.3449,0.7825,0,0,18.494,0,9.8347,0,1,0,1,0,0,0,0,0,0,0,0,0,0,0,1,Act1
7.4722,1.2175,0.9939,0,0,10.5518,0,8.5437,0,1,0,1,0,0,0,0,0,0,0,0,0,0,0,0,Act1
7.8788,1.3026,0.9263,0,0,13.8431,0,10.2533,0,1,1,1,0,0,0,0,0,0,0,0,0,0,0,1,Act1
7.9792,1.3126,0.8449,0,0,14.488,2,10.9206,0,1,1,1,0,0,0,0,0,0,0,1,0,0,1,1,Act-1
7.7045,1.2954,0.9917,0,0,17.1461,0,11.2639,0,1,1,1,0,0,0,0,0,0,0,0,0,0,0,1,Act1
7.9583,1.3126,0.8428,0,0,14.6407,0,10.9206,0,1,1,1,0,0,0,0,0,0,0,0,0,0,1,1,Act-1
7.6781,1.1996,1.1211,0,0,7.6722,0,6.467,0,1,0,1,0,0,0,0,0,0,0,0,0,0,0,0,Act-1
8.05,1.3341,1.3397,0,0,11.9229,0,6.4233,0,1,0,1,1,0,0,0,0,0,0,0,0,1,0,1,Act1
7.3667,1.3571,1.075,0,0,17.3569,0,6.604,0,1,0,1,1,0,0,0,0,0,0,0,0,0,0,1,Act1
7.4167,1.3571,1.121,0,0,14.5945,0,6.5952,0,1,0,1,2,0,0,0,0,1,0,0,0,0,0,1,Act-1
7.625,1.4356,0.818,0,0,24.4697,0,14.0404,1,1,1,1,0,0,0,0,0,0,0,0,0,0,0,1,Act1
7.7955,1.2954,0.9716,0,0,16.2597,0,11.1551,0,1,1,1,0,0,0,0,0,0,0,0,0,0,0,1,Act-1
7.1603,1,0,0,0,0,0,4.2804,0,0,0,0,0,0,0,0,0,0,0,0,0,0,1,0,Act-1
7.8788,1.2536,0.2742,0,0,7.1318,1,4.4703,0,1,1,0,0,0,0,0,0,0,0,0,0,0,1,0,Act1
7.8009,1.2612,1.0809,0,0,6.9918,0,4.8136,0,1,0,1,0,0,0,0,0,0,0,0,0,1,0,0,Act-1
10.1237,1.0648,0,0,0,0,0,0,0,0,0,0,0,0,0,0,0,0,1,1,0,0,0,0,Act-1
8.0493,1.247,1.1321,0,0,26.9371,1,17.3236,1,1,1,1,2,8,8,0,0,0,0,0,0,0,1,1,Act-1
7.8636,1.2496,0.6677,0,0,9.4531,0,5.4273,0,1,1,0,0,0,0,0,0,0,0,0,0,0,0,0,Act1
8.192,1.0339,0.9448,1,0,0,0,9.9964,1,1,1,1,0,0,0,0,0,0,0,0,0,0,0,0,Act-1
7.9312,1.1875,1.1482,0,0,1.6855,0,16.6945,1,1,1,1,3,4,4,1,0,0,0,0,0,1,1,1,Act-1
7.7639,1.2475,0.8507,0,0,5.284,0,5.5516,0,1,0,1,0,0,0,0,0,1,0,0,0,0,0,0,Act1
8.8889,1.0726,0,1,0,0,0,0,0,0,0,0,1,0,0,0,0,0,0,0,0,0,0,0,Act-1
7.4167,1.3881,0.959,0,0,29.8751,0,7.4897,0,1,1,1,0,0,0,0,0,0,0,1,0,0,0,1,Act-1
8.0064,1.1513,1.1448,0,0,1.6478,2,13.0718,1,1,1,1,1,2,2,1,0,0,0,0,0,1,1,0,Act-1
8.2171,1.1513,1.1186,0,0,1.6478,2,13.0718,1,1,1,1,1,2,2,1,0,0,0,0,0,1,1,0,Act-1
7.6543,1.4309,0.9851,0,0,0,0,16.8642,0,1,1,1,0,0,0,0,0,0,0,0,0,0,0,0,Act1
7.6944,1.4413,0.9648,1,0,0,0,16.8642,0,1,1,1,0,0,0,0,0,0,0,0,0,0,0,0,Act-1
7.7121,1.3746,0.9635,1,0,0,0,15.2124,0,1,1,1,0,0,0,0,0,0,0,0,0,0,0,0,Act-1
7.8838,1.4075,1.3274,0,0,7.6819,0,11.6062,1,1,1,1,0,0,0,0,0,0,0,0,0,1,0,1,Act1
7.8047,1.3769,1.1935,0,0,8.0199,0,11.2892,1,1,1,1,0,0,0,0,0,0,0,0,0,1,0,1,Act-1
8.0078,1.346,1.0114,0,0,1.4255,1,10.4044,1,1,1,1,0,0,0,0,0,0,0,0,0,1,1,1,Act1
7.7057,1.3717,1.1508,0,0,5.3469,0,9.4877,1,1,1,1,0,0,0,0,0,0,0,0,0,1,0,1,Act-1
7.9327,1.3909,0.9384,0,0,9.8226,0,9.9569,1,1,1,1,0,0,0,0,0,0,0,0,0,1,0,1,Act1
8.0156,1.2166,0.5082,0,0,9.3418,0,5.2569,0,1,1,0,0,0,0,0,1,0,0,0,1,0,0,0,Act1
7.8838,1.4075,1.3274,0,0,7.6819,0,11.6062,1,1,1,1,0,0,0,0,0,0,0,0,0,1,0,1,Act1
8.2213,1.396,1.0079,0,0,6.3102,0,9.92,1,1,1,1,0,0,0,0,0,0,0,0,0,1,0,1,Act1
7.9543,1.3717,1.1221,0,0,5.3469,0,9.4877,1,1,1,1,0,0,0,0,0,0,0,0,0,1,0,1,Act1
8.0302,1.2504,0.9977,0,0,5.4393,0,18.5613,1,1,1,1,0,0,0,0,0,0,0,0,0,0,0,1,Act-1
7.835,1.3721,1.0188,0,0,22.5037,0,16.1343,1,1,1,1,0,0,0,0,1,0,0,0,1,1,0,1,Act1
7.9087,1.1353,0.9409,0,0,3.331,0,16.735,0,1,1,1,0,0,0,0,0,0,0,1,1,0,0,0,Act1
8,1.4653,0.9651,0,0,8.7903,0,15.7836,1,1,1,1,0,3,3,0,0,0,0,0,1,0,0,1,Act-1
7.7043,1.1667,1.0675,0,0,0,0,16.5117,0,1,1,1,0,0,0,0,0,0,0,0,0,0,0,0,Act1
7.7477,1.2681,0.947,0,0,9.0919,1,16.8189,1,1,1,1,0,1,1,0,0,1,0,0,1,1,1,1,Act1
8.2436,1.2862,1.0848,0,0,6.5793,0,7.2396,0,1,1,1,0,0,0,0,0,0,0,0,1,1,0,1,Act1
7.7299,1.5288,1.0085,0,0,26.6535,0,11.5324,1,1,1,1,0,0,0,0,0,0,0,0,1,0,0,1,Act1
7.8817,1.5441,1.0022,0,1,16.5209,0,7.4948,1,1,1,1,0,0,0,0,0,1,0,0,1,1,0,1,Act1
7.66,1.324,0.9476,0,0,8.4542,0,9.0512,0,1,1,1,0,0,0,0,0,0,0,0,0,1,0,1,Act-1
7.6346,1.3205,1.0833,0,0,8.686,0,9.0512,0,1,1,1,0,0,0,0,0,0,0,0,0,1,0,1,Act1
7.8333,1,1.3204,0,0,0,0,3.7798,0,1,1,1,0,0,0,0,0,0,0,0,0,0,0,0,Act-1
7.8606,1.0959,1.1331,0,0,0,0,14.5888,0,1,1,1,0,0,0,0,0,0,0,0,0,0,0,0,Act1
7.9077,1.1567,0.9365,0,0,0,0,16.0815,0,1,1,1,0,0,0,0,0,0,0,0,0,0,0,0,Act-1
8.0043,1.008,0.9637,0,0,0,0,8.1261,1,1,1,1,0,0,0,0,0,0,0,0,0,0,0,0,Act-1
8.25,1.3866,1.0882,0,1,7.1467,0,6.2612,0,1,1,1,0,2,2,0,1,1,0,0,1,1,0,1,Act-1
8.1888,1.2342,1.0495,0,1,5.8894,5,14.9538,1,1,1,1,1,5,5,0,0,1,0,0,1,1,1,1,Act-1
8.3214,1.4459,1.0694,0,0,10.1289,0,9.4741,1,1,1,1,0,1,1,0,0,1,0,0,1,1,0,1,Act1
7.7227,1.3218,1.0319,0,0,12.1844,0,12.6174,1,1,1,1,0,1,1,0,0,0,0,0,1,1,1,1,Act1
7.8153,1.3202,1.058,0,0,11.7153,0,13.482,1,1,1,1,0,1,1,0,0,0,0,0,1,1,0,1,Act-1
7.2381,1.0431,0.9881,0,0,0,0,7.6395,0,1,1,1,0,0,0,0,0,0,0,0,0,0,0,0,Act1
7.8771,1.3196,0.9856,0,0,11.6722,0,13.3989,1,1,1,1,0,1,1,0,0,0,0,0,1,1,0,1,Act1
7.7273,1.1228,1.0638,0,0,13.6678,0,19.114,1,1,1,1,1,0,0,0,0,0,0,0,0,0,0,1,Act1
7.7433,1.1044,1.068,0,0,10.0179,0,18.9824,1,1,1,1,0,0,0,0,0,0,0,0,0,0,0,0,Act1
8.2319,1.0895,1.0609,0,0,6.0341,1,17.893,1,1,1,1,1,8,8,0,0,0,0,0,0,1,1,0,Act-1
7.7204,1.1868,1.0599,0,0,0,0,16.5117,0,1,1,1,0,0,0,0,0,0,0,0,0,0,0,0,Act1
7.7644,1.1183,1.1475,0,0,0,0,10.2335,0,1,1,1,0,0,0,0,0,0,0,0,0,0,0,0,Act-1
8.1056,1.1193,1.0325,1,0,0,0,10.2723,0,1,1,1,0,0,0,0,0,0,0,0,0,0,0,0,Act-1
8.2705,1.0895,1.0812,0,0,5.8516,1,17.7645,1,1,1,1,2,9,9,0,0,0,0,0,0,1,1,0,Act-1
7.7167,1.3225,0.8559,0,0,15.0322,0,6.3661,0,1,1,1,0,0,0,0,0,0,0,0,0,0,0,1,Act1
7.6346,1.4182,1.0385,0,1,11.9543,0,7.1082,1,1,1,1,0,0,0,0,0,1,0,0,0,1,0,1,Act1
7.9683,1.2691,1.0726,0,0,3.1986,0,7.4726,1,1,1,1,0,0,0,0,0,0,0,0,0,0,0,0,Act-1
7.4896,1.1338,0.7538,0,0,8.6765,0,8.5594,1,1,1,1,0,0,0,0,0,0,0,0,0,0,0,0,Act-1
7.5,1.3072,0.9958,0,0,9.645,0,9.8592,1,1,1,1,0,0,0,0,0,0,0,0,0,0,0,1,Act-1
7.3922,1.0692,0.9735,0,0,0,0,9.5189,1,1,1,1,0,0,0,0,0,0,0,0,0,0,0,0,Act1
7.8638,1.0037,1.0371,0,0,0,0,11.6184,1,1,1,1,0,0,0,0,0,0,0,0,0,0,0,0,Act-1
7.8005,1.1023,1.0923,0,0,0,0,14.9896,1,1,1,1,0,1,1,0,0,0,0,0,0,0,0,0,Act-1
7.9753,1.0994,1.0238,0,0,0,0,17.0183,1,1,1,1,0,0,0,0,0,0,0,0,0,0,0,0,Act1
7.6827,1.1082,1.0521,0,0,0,0,15.0462,1,1,1,1,0,1,1,0,0,0,0,0,0,0,0,0,Act-1
7.96,1.1011,1.0508,0,0,0,0,18.3304,1,1,1,1,0,0,0,0,0,0,0,0,0,0,0,0,Act-1
7.7014,1.1222,1.0711,0,0,9.3767,0,9.922,0,1,1,1,0,0,0,0,0,0,0,1,0,0,0,0,Act-1
7.6944,1.2437,0,0,0,7.4089,0,5.4507,0,1,0,0,0,0,0,0,0,0,0,1,0,0,0,0,Act-1
7.391,1.238,0.4332,0,0,8.4306,0,5.9389,0,1,0,0,0,0,0,0,0,0,0,1,0,0,0,0,Act1
7.6267,1.3437,0.997,0,0,15.3656,0,10.2355,1,1,1,1,0,0,0,0,0,0,0,1,0,0,0,1,Act-1
7.5556,1.2991,1.1859,0,0,16.53,0,10.3344,0,1,1,1,0,0,0,0,0,0,0,1,0,0,0,1,Act1
7.3587,1.1456,1.0929,0,0,10.4632,0,8.7192,0,1,0,1,0,0,0,0,0,0,0,1,0,0,0,0,Act1
7.3768,1.0104,0.8575,0,0,0,0,9.1219,1,1,1,1,0,0,0,0,0,0,0,1,0,0,0,0,Act-1
7.3472,1.1815,1.2976,0,0,6.1019,2,6.4677,0,1,1,1,0,2,2,0,0,0,0,1,0,0,0,0,Act1
7.3043,1.294,1.0523,0,0,21.8484,0,8.2076,0,1,0,1,0,0,0,0,0,0,0,1,0,0,0,1,Act-1
7,1.2937,1.0641,0,0,21.8484,0,8.2076,0,1,0,1,0,0,0,0,0,0,0,1,0,0,0,1,Act-1
7.6574,1.2298,1.0179,0,0,18.0691,0,10.9003,1,1,1,1,0,0,0,0,0,0,0,1,0,0,0,1,Act1
7.2333,1.5921,0.9089,0,0,22.7062,0,7.6775,0,1,0,1,0,1,1,0,0,0,0,1,1,1,1,1,Act-1
7.3182,1.3479,1.1072,0,0,17.5411,0,8.6534,0,1,0,1,1,0,0,0,0,0,0,1,0,0,0,1,Act-1
7.6373,1.2294,1.3382,0,0,6.0513,0,6.5467,0,1,0,1,0,0,0,0,0,0,0,1,0,0,0,0,Act-1
7.6378,1.4816,0.9755,0,0,15.0498,0,10.573,1,1,1,1,0,1,1,0,0,0,0,1,0,1,0,1,Act-1
7.4742,1.4724,0.9768,0,0,11.9319,0,11.1083,1,1,1,1,0,1,1,0,0,0,0,1,0,1,0,1,Act-1
7.4217,1.3592,0.8988,0,0,10.0488,0,10.6523,0,1,0,1,0,1,1,0,0,0,0,1,0,1,0,1,Act-1
7.8556,1.215,1.115,0,0,3.0994,1,7.5854,1,1,1,1,0,1,1,0,0,0,0,1,0,0,1,0,Act-1
7.4751,1.3855,1.1477,0,0,28.6355,0,11.2366,0,1,1,1,0,0,0,0,0,0,0,1,0,0,0,1,Act-1
8.0096,1.4578,0.7809,0,0,17.9638,1,12.3403,0,1,1,1,0,0,0,0,0,0,0,1,1,1,0,1,Act1
8.2593,1.2096,0.9247,1,0,5.8906,0,10.9033,1,1,1,1,1,0,0,1,0,0,0,0,0,0,1,0,Act1
7.875,1.2997,0.9833,0,0,5.2375,0,4.3952,0,1,1,0,0,0,0,0,0,0,0,0,0,0,0,0,Act-1
7.5758,1.3095,0.7068,0,0,7.9606,0,4.5611,0,1,1,1,0,0,0,0,0,0,0,0,0,0,0,0,Act1
8.1071,1.3042,0.998,0,0,12.5549,0,7.4182,1,1,1,1,1,0,0,0,0,0,0,0,0,0,0,1,Act-1
7.6075,1.0841,1.066,0,0,0,0,8.229,1,1,1,1,1,0,0,1,0,0,0,0,0,0,0,0,Act1
8.0214,1.1898,1.0123,1,0,14.0785,0,12.2842,1,1,1,1,1,0,0,1,0,0,0,0,0,0,0,1,Act-1
8.4633,1.1163,1.0056,1,0,4.7628,0,7.5433,1,1,1,1,1,0,0,1,0,0,0,1,0,0,0,0,Act-1
8.1232,1.0317,1.1463,1,0,0,0,7.1292,1,1,1,1,1,0,0,1,0,0,0,0,0,0,1,0,Act1
8.2188,1.1531,1.0286,0,0,8.8648,0,7.1292,1,1,1,1,1,0,0,1,0,0,0,1,0,0,0,0,Act-1
8.4601,1.0606,1.2322,0,0,0,0,5.3974,1,1,1,1,0,0,0,1,0,0,0,0,0,0,0,0,Act1
7.6569,1.0589,0.9273,1,0,0,0,9.2688,0,1,1,1,0,0,0,0,0,0,0,0,0,0,0,0,Act1
8.1552,1.0536,0.9891,3,0,0,0,9.2688,0,1,1,1,0,0,0,0,0,0,0,0,0,0,0,0,Act-1
7.9187,1.0652,0.9333,0,0,0,0,11.1495,0,1,1,1,0,0,0,0,0,0,0,1,0,0,0,0,Act-1
7.8333,1.042,1.3711,0,0,0,0,4.8289,1,1,0,1,0,0,0,0,0,0,0,0,0,0,0,0,Act-1
7.5909,1.0309,0,0,0,0,0,2.9375,0,0,0,0,0,0,0,0,0,0,0,0,0,0,0,0,Act-1
8.8111,1.0773,0,1,0,0,0,1.8899,0,0,0,0,0,0,0,1,0,0,0,0,0,0,0,0,Act-1
8.7959,1.2175,1.4666,0,0,0.0866,0,8.6625,0,1,1,1,0,0,0,0,0,0,0,0,0,0,0,0,Act-1
7.8585,1.8064,0.9975,0,0,25.2083,0,17.5353,0,1,1,1,0,0,0,0,0,0,1,1,0,0,0,1,Act-1
7.8066,1.3398,1.125,0,0,17.0398,0,13.5367,0,1,1,1,0,0,0,0,0,0,0,0,0,0,0,1,Act-1
8.2882,1.1014,0.8701,2,0,0,0,9.6478,0,1,1,1,1,0,0,0,0,0,0,0,0,0,1,0,Act-1
7.4697,1,0,0,0,0,0,2.9375,0,0,0,0,0,0,0,0,0,0,0,0,0,0,0,0,Act-1
8.2583,1.1133,0,0,0,0,0,3.1171,0,0,0,0,0,0,0,0,0,0,0,1,0,0,0,0,Act-1
7.8718,1.3174,0.8176,0,0,12.1018,0,9.9556,0,1,1,1,0,0,0,0,0,0,0,0,0,0,0,1,Act-1
7.8106,1.4208,1.0854,0,0,23.7153,1,18.4077,1,1,1,1,0,3,3,0,0,1,0,1,1,0,0,1,Act-1
9.1061,1.2335,1.4299,0,0,1.9517,0,4.7785,0,1,1,0,0,0,0,0,1,0,0,0,1,0,0,0,Act1
8.0484,1.0916,0.8314,0,0,0,0,8.2371,0,1,1,1,0,0,0,0,0,0,0,0,0,0,0,0,Act-1
8.0161,1.052,0.8255,0,0,0,0,8.2371,0,1,1,1,0,0,0,0,0,0,0,0,0,0,0,0,Act-1
8.0511,1.0914,0.8902,0,0,0,0,8.3232,0,1,1,1,0,0,0,0,0,0,0,0,0,0,0,0,Act-1
7.9579,1.052,0.9234,0,0,0,0,8.7827,0,1,1,1,0,0,0,0,0,0,0,0,0,0,0,0,Act-1
7.8407,1.0764,0.6799,0,0,4.9915,0,8.1622,0,1,1,1,0,0,0,0,0,0,0,0,1,0,0,0,Act-1
7.8634,1.1557,1.0067,0,0,7.406,0,7.8622,1,1,1,1,0,0,0,0,1,0,0,0,0,0,0,0,Act-1
8.0511,1.0914,0.8902,0,0,0,0,8.3232,0,1,1,1,0,0,0,0,0,0,0,0,0,0,0,0,Act-1
8.0494,1.1386,1.051,0,0,9.3846,0,9.8817,1,1,1,1,1,0,0,1,0,1,0,1,1,0,0,0,Act-1
7.8826,1.0945,0.9031,1,0,0,0,6.3233,1,1,1,1,1,0,0,1,0,0,0,0,0,0,0,0,Act-1
8.3869,1.0445,0,1,0,0,0,1,0,0,0,0,1,0,0,1,0,0,0,0,0,0,1,0,Act-1
8.5926,1.1478,0.99,0,0,7.2188,0,7.6555,1,1,1,1,2,0,0,1,0,0,1,1,0,0,0,0,Act-1
8.191,1.1531,1.0867,1,0,8.8768,0,7.6555,1,1,1,1,1,0,0,1,0,0,0,0,0,0,1,0,Act-1
8.3981,1.1103,1.017,1,0,8.1142,0,7.6555,1,1,1,1,2,0,0,1,1,0,0,1,0,1,0,0,Act-1
8.2786,1.1204,0.9924,0,0,8.4223,0,7.6555,1,1,1,1,1,0,0,1,1,0,0,1,0,1,0,0,Act-1
8.4712,1.1481,0.9695,0,0,7.824,0,8.6683,1,1,1,1,1,0,0,1,0,0,0,1,0,0,0,0,Act-1
8.2188,1.1531,1.0286,0,0,8.8648,0,7.1292,1,1,1,1,1,0,0,1,0,0,0,1,0,0,0,0,Act-1
8.31,1.1552,1.0404,1,0,5.9045,0,7.0607,1,1,1,1,1,0,0,1,0,0,0,0,0,0,1,0,Act-1
8.35,1.1552,1.0329,0,0,5.8741,0,7.0607,1,1,1,1,1,0,0,1,0,0,0,1,0,0,1,0,Act-1
8.1848,1.1582,0.9704,0,0,9.2415,0,8.6683,1,1,1,1,1,0,0,1,0,0,0,1,0,0,0,0,Act-1
8.3182,1.2821,1.0403,0,0,4.481,1,10.3948,1,1,1,1,0,0,0,0,0,0,0,0,1,1,1,1,Act1
7.7065,1.4018,0.9381,0,0,15.0591,0,10.7422,0,1,1,1,0,0,0,0,1,0,0,0,1,1,0,1,Act1
7.7832,1.426,1.1249,0,0,14.5817,0,12.7555,0,1,1,1,0,0,0,0,0,0,0,0,1,1,0,1,Act1
7.8565,1.2722,1.0853,0,0,13.0027,0,12.9114,0,1,0,1,0,0,0,0,0,0,0,0,0,0,0,1,Act1
7.8106,1.4211,1.0854,0,0,23.7153,0,18.4077,1,1,1,1,0,3,3,0,0,1,0,0,1,0,0,1,Act-1
7.6577,1.4498,1.0773,0,0,18.5608,0,12.3977,0,1,1,1,0,1,1,0,0,1,0,0,0,1,0,1,Act1
8.2325,1.3665,0.6791,0,1,14.4824,0,9.6205,1,1,1,1,0,1,1,0,1,1,0,0,1,1,0,1,Act1
7.8194,1,0,0,0,0,0,4.4677,0,1,0,0,0,0,0,0,0,0,0,0,0,0,0,0,Act1
8.7549,1.2625,0.0001,0,0,5.913,0,5.2301,0,1,1,0,0,0,0,0,0,0,1,1,0,0,0,0,Act1
7.8851,1.3722,0.9404,0,0,4.2106,0,13.1936,1,1,1,1,0,0,0,0,0,0,0,0,0,1,0,1,Act1
7.9737,1.4317,1.0077,0,1,9.3103,0,4.782,0,1,1,1,0,1,1,0,0,1,0,0,1,1,0,1,Act1
8.0833,1.3397,0.1212,0,0,7.0153,0,3.9868,0,1,1,0,0,0,0,0,0,0,0,0,1,1,0,0,Act-1
7.7564,1.4873,0.8714,0,0,16.3511,0,12.2175,0,1,1,1,0,1,1,0,0,0,0,0,0,0,0,1,Act1
7.5909,1.3944,0.8737,0,1,9.9036,0,8.0352,1,1,0,1,0,0,0,0,0,0,0,0,0,0,0,1,Act1
7.6212,1.3944,0.912,0,1,9.8023,0,8.2253,1,1,0,1,0,0,0,0,0,0,0,0,0,1,0,1,Act1
8.1806,1.2563,0,0,0,1.65,0,3,1,0,0,0,0,0,0,0,0,0,0,1,0,0,0,0,Act-1
7.3814,1.4318,0.8077,0,0,0,0,16.7908,0,1,1,1,0,0,0,0,0,0,0,0,0,0,0,0,Act1
7.3208,1.7796,0.7616,0,0,0,0,18.5052,0,1,0,1,0,0,0,0,0,0,0,0,0,0,0,0,Act1
7.496,1.3337,0.7405,0,0,0,0,9.7963,0,1,1,1,0,0,0,0,0,0,0,0,0,0,0,0,Act1
7.7311,1.3669,0.7141,1,0,0,0,9.7963,0,1,1,1,0,0,0,0,0,0,0,0,0,0,0,0,Act1
7.7412,1.3446,1.0004,0,0,16.1041,0,13.757,1,1,1,1,0,0,0,0,0,0,0,0,1,0,0,1,Act1
8.0433,1.3461,0.7839,0,0,10.1406,0,7.0922,1,1,1,1,0,0,0,0,0,0,0,1,0,0,0,1,Act1
7.8958,1.3185,0.9493,0,0,10.3685,0,11.0078,1,1,1,1,0,0,0,0,0,0,0,1,0,0,0,1,Act1
7.8649,1.3132,0.9669,0,0,10.4012,0,11.2805,1,1,1,1,0,0,0,0,0,0,0,1,0,0,0,1,Act1
7.9722,1.427,1.0562,0,0,16.8275,0,12.8384,1,1,1,1,0,0,0,0,0,0,0,1,0,0,0,1,Act1
8.0399,1.3587,0.9269,0,0,11.8722,0,7.8934,1,1,1,1,0,0,0,0,0,0,0,1,0,0,0,1,Act1
7.8488,1.3225,0.9958,0,0,12.2209,0,11.4974,1,1,1,1,0,0,0,0,0,0,0,1,0,0,0,1,Act1
8.0403,1.4216,1.0591,0,0,11.5411,0,13.1423,1,1,1,1,0,0,0,0,0,0,0,1,0,0,0,1,Act1
7.7929,1.3533,0.8726,0,0,7.3222,0,9.478,1,1,1,1,0,0,0,0,0,0,0,0,0,1,0,1,Act1
7.5,1.5447,1.0683,0,1,18.1686,0,6.7743,0,1,0,1,1,0,0,0,0,1,0,0,1,1,0,1,Act1
7.6199,1.468,1.242,0,0,12.7418,0,15.0746,1,1,1,1,0,0,0,0,0,1,0,0,0,1,0,1,Act1
7.99,1.414,0.9278,0,0,15.2115,0,10.0241,0,1,1,1,1,0,0,0,0,0,0,0,0,0,0,1,Act1
8.1552,1.4042,0.976,0,0,9.0601,0,11.9195,0,1,1,1,0,0,0,0,0,0,0,0,1,1,0,1,Act1
7.5611,1.3882,1.0681,0,0,16.188,0,9.4352,1,1,1,1,0,0,0,0,0,0,0,0,1,1,0,1,Act1
7.4405,1.5119,0.7361,0,0,14.7264,0,9.1948,0,1,0,1,0,0,0,0,0,1,0,0,1,1,0,1,Act1
8.0833,1.3587,0.9914,0,0,9.5724,0,7.3144,1,1,1,1,0,1,1,0,0,0,0,1,0,1,0,1,Act1
7.3492,1.3159,0.7972,0,0,6.7772,0,5.6525,0,1,0,1,0,0,0,0,0,0,0,0,1,1,0,1,Act1
7.7236,1.6286,1.0365,0,0,35.279,0,17.049,1,1,1,1,0,3,3,0,0,0,0,1,1,1,0,1,Act1
7.6608,1.6376,1.0494,0,0,35.632,0,18.4147,1,1,1,1,0,3,3,0,0,0,0,0,1,1,0,1,Act1
7.7951,1.4829,0.8298,0,0,14.5805,0,14.2087,1,1,1,1,0,0,0,0,0,0,0,0,1,1,0,1,Act1
7.9806,1.274,0.9922,0,0,7.0235,1,7.4979,1,1,1,1,1,2,2,0,1,1,0,1,1,1,0,1,Act1
7.5216,1.2248,1.032,0,0,10.743,0,11.8085,0,1,1,1,0,1,1,0,0,0,0,0,0,1,0,1,Act1
7.5025,1.2349,0.9084,0,0,21.7518,0,12.2518,0,1,1,1,0,0,0,0,0,0,0,0,0,1,0,1,Act1
7.7312,1.4752,0.9686,0,0,12.9625,0,12.296,1,1,1,1,0,1,1,0,1,0,0,0,1,1,0,1,Act1
7.9194,1.3712,1.2416,0,0,7.4623,1,7.8548,0,1,1,1,0,2,2,0,1,0,0,0,1,1,1,1,Act-1
7.6987,1.51,0.9312,0,1,13.7598,0,8.0127,1,1,1,1,0,1,1,0,0,0,0,0,1,0,0,1,Act1
7.8141,1.4262,0.9576,1,0,7.63,0,9.1736,1,1,1,1,0,0,0,0,0,1,0,0,1,1,0,1,Act-1
7.5641,1.5374,0.8527,0,0,18.0733,0,11.049,0,1,0,1,0,0,0,0,0,1,0,0,1,1,0,1,Act1
7.6389,1.5437,0.811,0,0,15.4212,0,11.0763,0,1,0,1,0,0,0,0,0,1,0,0,1,1,0,1,Act1
7.5595,1.6231,0.7916,0,0,18.1694,0,11.1243,0,1,0,1,0,0,0,0,0,1,0,0,1,1,0,1,Act1
7.7698,1.2838,1.3078,0,0,2.0298,1,8.2614,1,1,1,1,0,0,0,0,0,0,0,0,1,1,1,1,Act1
7.6515,1.5202,1.1076,0,0,22.3459,0,11.295,0,1,1,1,0,1,1,0,0,0,0,0,1,1,0,1,Act1
7.5064,1.3834,1.0111,0,0,14.1361,0,11.687,0,1,1,1,0,0,0,0,0,1,0,0,0,1,0,1,Act1
7.75,1.3371,0.8167,0,0,6.0984,0,9.3672,1,1,1,1,1,1,1,0,0,0,0,0,0,1,0,1,Act1
8.0242,1.5259,0.963,0,0,15.4846,0,13.2339,1,1,1,1,1,0,0,0,0,0,0,0,1,1,0,1,Act1
8.3862,1.4266,0.7416,0,0,9.1503,0,10.7271,1,1,1,1,0,1,1,0,0,0,0,0,1,1,0,1,Act1
8.1371,1.4328,0.8726,0,0,10.491,0,9.4914,0,1,1,1,1,0,0,0,0,0,0,0,1,1,0,1,Act1
7.8534,1.2805,0.5215,0,0,9.1212,0,10.5984,1,1,1,1,1,0,0,1,0,0,0,1,1,1,0,1,Act-1
7.8429,1.5151,1.1231,0,0,16.402,0,14.4637,1,1,1,1,0,0,0,0,0,0,0,0,1,1,0,1,Act1
8.2431,1.1993,1.0212,0,0,8.8241,0,8.5256,1,1,1,1,1,0,0,1,0,0,0,1,0,0,1,0,Act-1
8.1816,1.0757,0.865,0,0,0,0,11.2335,0,1,1,1,0,0,0,0,0,0,0,0,0,0,0,0,Act1
8.1367,1.115,0.797,0,0,0,3,3.7798,1,1,1,1,0,0,0,0,0,0,0,0,0,1,1,0,Act1
8.0038,1.3344,0.9066,0,0,17.6081,0,11.6526,0,1,1,1,0,0,0,0,0,0,0,0,1,1,0,1,Act1
7.9678,1.3124,0.7581,0,0,7.3467,0,8.8368,1,1,1,1,0,0,0,0,0,0,0,0,0,1,0,0,Act1
8.2767,1.331,0.7061,0,0,5.6608,0,8.1288,0,1,1,1,2,0,0,0,0,0,0,0,0,1,0,0,Act1
7.9018,1.3021,0.9208,0,0,7.2181,0,7.8547,0,1,1,1,2,2,2,0,0,0,0,0,1,1,0,0,Act1
8.1505,1.3114,0.9814,0,0,6.7367,0,7.8547,1,1,1,1,2,2,2,0,0,0,0,0,1,1,0,0,Act1
8.1597,1.1401,1.0462,1,0,0,0,8.5256,1,1,1,1,1,0,0,1,0,0,0,0,0,0,1,0,Act-1
8.32,1.2005,0.9796,1,0,5.8906,0,8.2253,1,1,1,1,1,0,0,1,0,0,0,0,0,0,1,0,Act-1
7.9302,1.3474,0.9357,0,0,26.054,2,15.0585,1,1,1,1,0,0,0,1,0,1,0,0,1,0,1,1,Act1
7.8753,1.3219,0.9717,0,0,25.8724,0,15.7472,1,1,1,1,0,0,0,0,0,0,1,0,1,0,0,1,Act-1
7.8389,1.3408,0.9578,0,0,27.3957,0,15.6441,0,1,1,1,0,0,0,0,0,0,0,0,1,0,0,1,Act1
8.2323,1.2348,1.0509,0,0,6.5369,0,8.3106,1,1,1,1,0,0,0,0,0,0,0,0,0,0,0,0,Act1
7.7311,1.3669,0.7141,1,0,0,0,9.7963,0,1,1,1,0,0,0,0,0,0,0,0,0,0,0,0,Act-1
7.8692,1.4269,0.8144,0,0,10.3756,0,10.1177,1,1,1,1,0,2,2,0,1,0,0,0,1,1,0,1,Act1
7.7262,1.4468,0.8425,0,0,22.3741,0,13.0179,1,1,1,1,0,0,0,0,1,0,0,0,1,1,0,1,Act1
7.7682,1.4437,0.808,0,0,16.6891,0,11.5887,1,1,1,1,0,1,1,0,1,0,0,0,1,1,0,1,Act1
7.7705,1.4949,0.8121,0,0,18.7042,0,15.7043,1,1,1,1,0,2,2,0,1,0,0,0,1,1,0,1,Act1
7.842,1.4239,0.7965,0,0,10.586,0,10.1177,1,1,1,1,0,2,2,0,1,0,0,0,1,1,0,1,Act1
7.7118,1.3892,0.8323,0,0,9.1897,0,12.191,1,1,1,1,0,0,0,0,1,0,0,0,1,1,0,1,Act1
7.9591,1.428,0.86,0,0,21.0904,0,13.5157,1,1,1,1,0,0,0,0,0,1,0,0,1,1,0,1,Act-1
7.5202,1.2969,0.7784,0,0,7.1786,0,18.1688,0,1,1,1,0,0,0,0,0,0,0,0,0,0,0,0,Act-1
7.7356,1.5619,0.8796,0,0,16.6236,2,11.1812,1,1,0,1,0,0,0,0,0,0,0,0,1,1,1,1,Act1
8.1861,1.3785,0.9299,0,0,8.3,0,11.1358,1,1,1,1,0,0,0,0,0,0,0,0,1,0,0,1,Act1
8.0192,1.6227,1.0512,0,1,15.84,0,11.5701,0,1,1,1,0,3,3,0,0,1,0,0,0,1,0,1,Act1
8.1374,1.5967,0.8528,0,0,18.044,0,13.0971,1,1,1,1,0,3,3,0,0,1,0,0,1,1,0,1,Act1
7.8075,1.4983,0.9849,0,0,18.0902,0,12.9352,0,1,1,1,1,0,0,0,0,0,0,0,1,0,0,1,Act1
7.9543,1.5648,1.0717,0,0,21.0767,1,11.3206,1,1,1,1,0,0,0,0,0,0,0,0,1,0,1,1,Act1
7.7644,1.5702,1.0279,0,0,22.4804,0,11.4645,1,1,1,1,0,0,0,0,0,0,0,0,1,0,0,1,Act1
7.6979,1.6106,0.9781,0,0,23.0709,0,11.4645,1,1,1,1,0,0,0,0,0,1,0,0,1,1,0,1,Act1
7.8182,1.5657,1.0073,0,0,22.5783,0,11.4645,1,1,1,1,0,0,0,0,0,1,0,0,1,0,0,1,Act-1
7.6615,1.6106,1.0309,0,0,26.3979,0,10.9102,1,1,1,1,0,0,0,0,0,0,0,0,1,1,0,1,Act-1
7.8662,1.5517,0.9837,0,0,21.574,0,10.9102,1,1,1,1,0,0,0,0,0,0,0,0,1,0,0,1,Act1
7.818,1.5827,1.0043,0,0,25.0786,0,13.4691,1,1,1,1,1,1,1,0,0,0,0,0,1,0,0,1,Act-1
7.9245,1.5541,0.9914,0,0,21.596,0,11.8299,1,1,1,1,0,0,0,0,0,0,0,0,1,0,1,1,Act1
7.7346,1.5364,0.8524,0,0,22.5698,0,12.8726,1,1,1,1,0,0,0,0,0,0,0,0,1,0,0,1,Act1
7.7604,1.6684,1.0056,0,1,28.1444,0,16.1831,1,1,1,1,0,3,3,0,0,1,0,0,1,0,0,1,Act1
7.875,1.576,1.0791,0,0,13.0943,0,8.2049,0,1,1,1,0,2,2,0,0,1,0,0,1,1,0,1,Act1
7.6528,1.4765,0.8595,0,0,19.9865,0,18.0053,0,1,1,1,0,0,0,0,0,0,0,0,1,0,0,1,Act1
7.4,1.3699,1.0024,0,0,8.8942,0,12.4005,0,1,0,1,1,0,0,0,0,0,0,0,1,1,0,1,Act1
7.931,1.539,0.8944,0,0,10.3796,1,9.7547,0,1,1,1,0,0,0,0,0,1,0,0,1,1,1,1,Act1
7.588,1.4547,0.7542,0,0,9.2126,0,8.9942,0,1,0,1,0,0,0,0,0,1,0,0,1,1,0,1,Act1
7.9639,1.2977,0.9977,0,0,4.907,0,12.595,1,1,1,1,0,0,0,0,0,0,0,0,0,0,0,1,Act1
8.0317,1.4122,0.9884,0,0,11.6596,0,10.529,0,1,1,1,0,0,0,0,0,0,0,0,1,1,0,1,Act1
7.6111,1.5289,1.0092,0,0,24.4795,0,13.0096,0,1,1,1,0,0,0,0,0,0,0,0,1,1,0,1,Act1
8.0182,1.3692,1.0107,0,0,12.0687,0,14.4741,1,1,1,1,3,0,0,0,0,0,0,0,0,1,0,1,Act1
7.7537,1.2968,0.9028,0,0,9.286,0,11.9075,1,1,1,1,0,0,0,0,1,0,0,0,1,1,0,1,Act1
7.6687,1.2689,1.0116,0,0,13.5539,0,15.0686,0,1,1,1,0,0,0,0,1,0,0,0,0,0,0,1,Act1
8.3764,1.4278,1.0004,0,0,15.9428,0,9.4853,0,1,1,1,0,0,0,0,0,0,0,0,1,0,0,1,Act1
8.0208,1.317,0.9739,0,0,8.5809,0,9.7993,0,1,1,1,1,0,0,0,0,0,0,0,0,1,0,1,Act-1
7.9754,1.2991,0.7,0,0,4.9509,0,11.1223,1,1,1,1,1,0,0,0,0,0,0,0,0,1,0,1,Act1
8.3563,1.3311,0.8952,0,0,9.1152,0,8.1855,1,1,1,1,0,0,0,0,0,0,0,0,0,0,0,1,Act1
8.0906,1.3325,0.8801,0,0,9.701,0,7.6719,1,1,1,1,0,0,0,0,0,0,0,0,0,0,0,1,Act1
7.987,1.5161,1.1597,0,0,16.0333,0,12.1272,1,1,1,1,0,0,0,0,0,0,0,0,0,1,0,1,Act1
7.5119,1.776,0.7701,0,0,0,0,18.7739,0,1,1,1,0,0,0,0,0,0,0,0,0,0,0,0,Act-1
7.9907,1.4793,0.9721,0,0,13.1343,0,10.4494,1,1,1,1,0,0,0,0,0,1,0,0,1,1,0,1,Act-1
8.2917,1.4566,0.9969,0,0,7.3598,2,9.4054,0,1,1,1,0,4,4,0,0,1,0,0,1,1,1,1,Act1
7.6346,1.151,0.9008,0,0,5.1013,0,10.8436,1,1,1,1,0,0,0,0,0,0,0,0,1,1,0,0,Act1
8.1172,1.5494,0.9844,0,0,18.7021,0,13.8234,1,1,1,1,0,0,0,0,0,0,0,0,1,1,0,1,Act1
7.5958,1.4645,0.8631,0,0,8.0753,0,9.0611,0,1,0,1,0,0,0,0,0,1,0,0,0,1,0,1,Act1
8.3139,1.4217,0.9768,1,0,10.5493,0,10.9401,0,1,1,1,0,0,0,0,0,0,0,0,1,0,0,1,Act1
7.8398,1.3735,0.9144,0,0,11.7426,0,12.0109,0,1,1,1,0,0,0,0,0,0,0,0,1,1,0,1,Act1
8.1997,1.2925,0.8117,0,0,9.8932,0,7.3837,1,1,1,1,1,0,0,0,0,0,0,0,0,0,0,1,Act1
7.8184,1.5582,1.1139,0,0,12.2522,0,8.1527,1,1,1,1,0,0,0,0,0,0,0,0,0,1,0,1,Act1
8.0345,1.425,1.1379,0,0,16.02,0,12.6349,1,1,1,1,0,1,1,0,0,0,0,1,0,1,0,1,Act1
7.6726,1.2194,0,0,0,3.6972,0,5.5381,0,1,0,0,0,0,0,0,0,0,0,0,0,0,0,0,Act1
7.9808,1.568,1.006,0,0,16.4436,0,7.6573,0,1,0,1,0,0,0,0,0,1,0,0,1,1,0,1,Act1
7.4509,1.4393,0.5161,0,1,10.9971,0,10.2094,0,1,1,1,1,0,0,0,0,0,0,1,0,0,0,1,Act1
7.7213,1.3905,0.8314,0,0,9.1486,0,9.8096,1,1,1,1,0,1,1,0,1,0,0,0,0,1,0,1,Act-1
7.8561,1.4588,0.8208,0,0,12.7561,0,6.1399,1,1,1,1,0,0,0,0,0,0,0,0,1,0,0,1,Act1
7.8333,1.4688,0.7477,0,0,15.04,0,6.8797,1,1,1,1,0,0,0,0,0,0,0,0,1,0,0,1,Act1
8.1689,1.4639,0.9009,0,0,11.7009,0,6.5482,0,1,1,1,0,0,0,0,0,0,0,1,0,0,0,1,Act-1
8.0606,1.3982,0.9997,0,0,11.0073,1,13.9812,1,1,1,1,0,0,0,0,0,0,0,1,0,0,0,1,Act1
8.1442,1.3219,0.8798,0,0,6.0562,1,9.0263,1,1,1,1,0,0,0,0,0,0,0,1,0,0,0,1,Act1
7.9583,1.2949,0.9551,0,0,6.3448,1,12.5128,1,1,1,1,0,0,0,0,0,0,0,1,0,0,0,1,Act1
7.7444,1.3721,0.9037,0,0,12.6285,0,11.9447,0,1,1,1,0,0,0,0,0,0,0,0,1,1,0,1,Act1
7.5383,1.5123,1.1115,0,0,21.1772,0,9.6478,1,1,1,1,0,0,0,0,0,0,0,0,1,1,0,1,Act1
7.8157,1.2624,0.9086,0,0,7.3711,0,9.0533,0,1,1,1,2,0,0,0,0,0,0,0,1,0,0,1,Act1
7.6379,1.3963,0.8575,0,0,12.0609,0,11.0252,0,1,1,1,0,0,0,0,0,0,0,0,1,0,0,1,Act1
7.8784,1.4719,0.8227,0,0,17.2944,0,15.7196,0,1,1,1,0,0,0,0,0,0,0,0,1,0,0,1,Act1
8.3289,1.5169,0.6291,0,0,11.4481,0,11.3649,1,1,1,1,0,0,0,0,0,1,0,0,1,1,0,1,Act1
8.2839,1.5157,0.6548,0,0,11.6575,0,11.1935,1,1,1,1,0,0,0,0,0,1,0,0,1,1,0,1,Act1
8.4048,1.1056,0,1,0,0,0,3,0,0,0,0,1,0,0,1,0,0,0,0,0,0,1,0,Act-1
8.32,1.2005,0.9796,1,0,5.8906,0,8.2253,1,1,1,1,1,0,0,1,0,0,0,0,0,0,1,0,Act1
8.0667,1.2238,0.6269,0,0,0,0,3.9203,0,1,1,0,0,0,0,0,0,0,0,0,0,0,0,0,Act1
8.1894,1.4238,0.9972,0,0,10.1277,1,13.1881,1,1,1,1,0,0,0,0,0,0,0,1,0,0,0,1,Act1
8.1894,1.4275,1.0609,0,0,10.214,0,13.1881,1,1,1,1,0,0,0,0,0,0,0,1,0,0,0,1,Act1
8.1894,1.4384,1.0584,0,0,10.3389,0,13.1881,1,1,1,1,0,1,1,0,0,0,0,1,0,1,0,1,Act1
8.1821,1.3247,0.7659,0,0,4.3525,0,8.4012,1,1,1,1,0,0,0,0,0,0,0,0,0,0,0,1,Act1
8.0306,1.2988,0.9342,0,0,4.5287,0,12.3151,1,1,1,1,0,0,0,0,0,0,0,0,0,0,0,1,Act-1
7.9973,1.2939,0.9528,0,0,4.5529,0,12.4349,1,1,1,1,0,0,0,0,0,0,0,0,0,0,0,1,Act1
7.973,1.3724,0.9955,0,0,11.176,1,14.2963,1,1,1,1,0,1,1,0,0,0,0,1,0,0,0,1,Act1
8.253,1.3007,0.8728,0,0,5.8328,0,11.311,1,1,1,1,0,0,0,0,0,0,0,1,0,0,0,1,Act1
8.3833,1.2917,1.0238,0,0,5.6387,0,11.7698,1,1,1,1,0,0,0,0,0,0,0,1,0,0,0,1,Act1
8.0944,1.4137,0.9859,0,0,12.6661,0,13.8513,1,1,1,1,0,0,0,0,0,0,0,1,0,0,0,1,Act1
8.1797,1.4227,1.0265,0,0,11.8877,1,14.8682,1,1,1,1,0,0,0,0,0,0,0,1,0,0,0,1,Act-1
8.1742,1.4198,1.0295,0,0,12.0189,0,14.8642,1,1,1,1,0,0,0,0,0,0,0,1,0,0,0,1,Act1
8.1962,1.4417,1.0273,0,0,11.8763,0,13.1326,1,1,1,1,0,0,0,0,0,0,0,1,0,0,0,1,Act1
8.1351,1.4147,1.0018,0,0,12.2163,0,13.0464,1,1,1,1,1,0,0,0,0,1,0,1,0,0,0,1,Act-1
8.1351,1.4147,1.0112,0,0,11.9243,0,11.7698,1,1,1,1,0,1,1,0,0,0,0,1,0,1,0,1,Act-1
8.0268,1.3071,0.9518,0,0,6.2646,0,12.3819,1,1,1,1,0,0,0,0,0,0,0,0,0,0,0,1,Act1
7.9914,1.3017,0.9791,0,0,6.299,0,12.5128,1,1,1,1,0,0,0,0,0,0,0,0,0,0,0,1,Act1
8.0982,1.3071,0.921,0,0,6.127,0,9.0263,1,1,1,1,0,0,0,0,0,0,0,0,0,0,0,1,Act1
8.0995,1.4238,1.0705,0,0,12.534,0,13.0177,1,1,1,1,0,0,0,0,0,0,0,0,0,0,0,1,Act1
8.0222,1.3278,1.0466,0,0,6.8378,0,9.5633,0,1,1,1,0,0,0,0,0,0,0,0,0,0,0,1,Act1
7.9683,1.3236,1.0447,0,0,7.05,0,8.4323,1,1,1,1,0,0,0,0,0,0,0,0,0,0,0,1,Act1
8,1.3621,1.0391,0,0,4.132,0,8.1187,1,1,1,1,0,0,0,0,0,0,0,0,0,1,0,1,Act1
8.0196,1.2633,0.9071,0,0,7.2994,0,6.0887,0,1,1,1,0,0,0,0,1,0,0,0,0,0,0,0,Act1
7.7816,1.358,1.039,0,0,19.383,0,14.9421,0,1,1,1,0,0,0,0,0,0,0,0,1,0,0,1,Act1
8.2979,1.2122,1.1674,1,0,0,0,10.0707,1,1,1,1,1,3,3,1,0,1,0,0,1,1,1,0,Act-1
7.9975,1.5109,0.8454,0,0,10.6566,2,11.4827,1,1,1,1,0,0,0,0,0,1,0,0,1,1,1,1,Act1
7.8718,1.2326,0.5736,0,0,1.5172,0,7.9287,1,1,1,1,1,2,2,1,0,0,0,1,0,1,1,1,Act-1
7.8735,1.5229,0.9109,0,0,19.5912,0,10.6891,1,1,1,1,0,0,0,0,0,1,0,0,1,1,0,1,Act1
7.6998,1.4036,0.7345,0,0,7.6267,0,10.7833,1,1,1,1,0,0,0,0,0,1,0,0,1,1,0,1,Act1
7.6827,1.3996,1.3972,0,0,7.7166,0,10.9088,0,1,1,1,1,0,0,0,0,1,0,0,1,1,0,1,Act1
7.5469,1.3993,0.749,0,1,11.3701,0,11.9814,1,1,1,1,0,0,0,0,0,1,0,0,0,1,0,1,Act1
7.8565,1.138,0.266,0,0,0,0,5.8136,0,1,1,0,0,0,0,0,0,0,0,0,0,0,0,0,Act-1
8.207,1.3273,1.1373,0,0,4.382,0,8.5386,1,1,1,1,0,0,0,0,0,0,0,0,0,1,0,1,Act1
8.0106,1.4369,1.1271,0,0,8.8599,0,8.3117,0,1,1,1,0,0,0,0,0,0,0,0,0,0,0,1,Act1
7.8947,1.4786,1.0011,0,0,13.0924,0,7.2927,1,1,1,1,1,0,0,0,0,0,0,0,1,0,0,1,Act1
7.7718,1.3919,0.6219,0,0,7.301,0,8.6668,1,1,1,1,0,0,0,0,1,0,0,0,1,1,0,1,Act1
7.6398,1.3423,0.852,0,1,6.2349,0,11.6471,0,1,1,1,0,0,0,0,0,1,0,0,0,0,0,1,Act1
7.6917,1.3583,0.557,0,0,9.0214,0,5.1312,1,1,0,0,0,0,0,0,0,1,0,0,1,1,0,1,Act1
7.6475,1.4849,0.9374,0,0,17.5037,0,12.8068,1,1,1,1,1,0,0,0,0,0,0,0,0,0,0,1,Act1
7.569,1.475,0.8863,0,0,20.3011,0,14.0002,1,1,1,1,1,0,0,0,0,0,0,0,0,0,0,1,Act1
7.5,1.5865,0.9199,0,0,12.0635,0,6.1239,1,1,1,1,0,0,0,0,0,0,0,0,0,0,0,1,Act1
7.4386,1.6049,0.7491,0,0,14.4228,0,6.3397,0,1,0,1,0,0,0,0,0,0,0,0,0,0,0,1,Act1
8.1957,1.2751,1.3796,1,0,0,0,7.3918,0,1,1,1,0,0,0,0,0,0,0,0,0,0,0,0,Act-1
8.0772,1.3875,1.1511,0,1,5.1375,3,14.0475,1,1,1,1,0,6,6,0,0,0,1,1,1,1,1,1,Act1
8.1736,1.3599,0.8496,0,0,5.6886,0,8.5271,1,1,1,1,0,0,0,0,0,0,0,0,0,1,0,1,Act1
7.8656,1.4673,1.0255,0,0,13.1003,0,12.5159,1,1,1,1,0,1,1,0,0,0,0,0,1,1,0,1,Act1
7.8611,1.4823,0.9989,0,0,10.642,0,11.6073,1,1,1,1,0,1,1,0,0,0,0,0,1,1,0,1,Act1
7.8382,1.2766,0.7389,0,0,9.39,0,12.2133,1,1,1,1,0,1,1,0,0,0,0,0,0,1,0,1,Act1
7.8426,1.308,0.8165,0,0,13.195,0,14.8412,1,1,1,1,0,0,0,0,0,0,0,0,0,1,0,1,Act1
8.1695,1.4319,0.9157,0,0,17.8927,0,8.855,0,1,1,1,0,0,0,0,0,0,0,0,1,0,0,1,Act1
7.7024,1.426,0.8196,0,0,12.0658,0,10.0037,1,1,1,1,0,0,0,0,0,0,0,0,1,1,0,1,Act1
7.6583,1.4806,1.048,0,0,15.6416,0,9.1118,1,1,1,1,0,0,0,0,0,0,0,0,1,1,0,1,Act1
7.9086,1.4685,1.0549,0,0,19.6525,0,11.4264,0,1,1,1,0,0,0,0,0,1,0,0,1,1,0,1,Act1
7.4493,1.4738,1.0528,0,0,14.575,0,8.1971,0,1,1,1,0,0,0,0,0,0,0,0,0,1,0,1,Act1
8.1818,1.5517,1.0159,0,0,12.2725,0,13.7063,1,1,1,1,0,2,2,0,0,0,0,0,1,1,0,1,Act1
8.0651,1.3722,0.8826,0,0,9.7215,0,14.5042,1,1,1,1,3,0,0,0,0,0,0,0,0,1,0,1,Act1
7.5255,1.469,1.0366,0,0,12.1913,0,8.9367,0,1,1,1,0,0,0,0,0,0,0,0,0,1,0,1,Act1
7.8081,1.4985,1.1123,0,1,13.4409,0,13.0817,1,1,1,1,0,1,1,0,0,1,0,0,1,1,0,1,Act1
8.0957,1.5262,1.0125,0,0,15.3568,0,10.0254,1,1,1,1,1,1,1,0,0,1,0,0,0,1,1,1,Act1
8.0057,1.3949,1.0286,0,0,13.0358,0,12.5798,1,1,1,1,0,0,0,0,0,0,0,1,0,0,0,1,Act1
7.9549,1.2983,0.9091,0,0,8.2962,0,10.1333,1,1,1,1,0,0,0,0,0,0,0,1,0,0,0,1,Act1
7.9167,1.2921,0.944,0,0,8.3336,0,10.5969,1,1,1,1,0,0,0,0,0,0,0,1,0,0,0,1,Act1
7.5422,1.3921,0.8907,0,0,7.904,0,11.1106,0,1,0,1,0,0,0,0,0,1,0,0,1,1,0,1,Act1
7.4699,1.3944,0.8801,0,0,10.1725,0,10.2641,0,1,0,1,0,0,0,0,0,1,0,0,1,1,0,1,Act1
7.7756,1.4127,0.9537,0,0,8.7692,0,9.2397,0,1,1,1,0,2,2,0,0,1,0,0,1,1,0,1,Act1
7.4132,1.393,0.9195,0,0,10.6705,0,10.6803,0,1,0,1,0,0,0,0,0,1,0,0,1,1,0,1,Act1
7.5667,1.4175,1.027,0,0,9.8919,0,10.1296,0,1,0,1,0,0,0,0,0,1,0,0,1,1,0,1,Act1
7.3673,1.3866,1.0359,0,0,11.2148,0,11.9165,0,1,0,1,0,0,0,0,0,1,0,0,1,1,0,1,Act1
8.034,1.3866,1.2337,0,0,7.3026,0,10.1296,0,1,0,1,0,0,0,0,0,1,0,0,1,1,0,1,Act1
7.4699,1.393,0.8701,0,0,10.1767,0,10.6803,0,1,0,1,0,0,0,0,0,1,0,0,1,1,0,1,Act1
7.6319,1.393,1.0128,0,0,8.7656,0,9.2397,0,1,0,1,0,0,0,0,0,1,0,0,1,1,0,1,Act1
7.4467,1.391,0.8985,0,0,10.3984,0,9.2397,1,1,1,1,0,0,0,0,0,1,0,0,1,1,0,1,Act1
7.4733,1.3687,0.9967,0,0,10.3563,0,10.0139,1,1,1,1,1,0,0,0,0,0,0,0,1,1,0,1,Act1
7.5667,1.4214,0.8688,0,0,9.895,0,10.1296,0,1,0,1,0,2,2,0,0,1,0,0,1,1,0,1,Act1
8.034,1.3904,1.035,0,0,7.4087,0,10.1296,0,1,0,1,0,0,0,0,0,1,0,0,1,1,0,1,Act1
7.3913,1.3947,0.8601,0,0,12.7477,0,10.1296,0,1,0,1,0,0,0,0,0,1,0,0,1,1,0,1,Act1
7.3827,1.5183,0.9225,0,0,17.3588,0,10.9372,0,1,0,1,0,0,0,0,0,1,0,0,1,1,0,1,Act1
7.4348,1.3947,0.8186,0,0,9.9525,0,8.2764,0,1,0,1,0,1,1,0,0,1,0,0,1,1,0,1,Act1
7.9919,1.5234,1.0436,0,0,16.9812,0,14.7213,1,1,1,1,0,0,0,0,0,0,0,0,1,1,0,1,Act1
7.8969,1.5812,1.0031,0,0,18.7723,0,15.2531,1,1,1,1,0,1,1,0,0,0,0,0,1,1,0,1,Act1
7.2778,1.572,0.8297,0,0,14.4744,2,12.8051,0,1,1,1,0,0,0,0,1,0,0,0,0,1,1,1,Act-1
7.7071,1.488,0.8585,0,0,13.2455,0,8.945,1,1,1,1,0,0,0,0,0,0,0,0,0,1,0,1,Act1
7.6149,1.5308,1.0306,0,0,16.0268,0,10.1005,0,1,1,1,0,0,0,0,0,0,0,0,1,0,0,1,Act-1
7.7153,1.4268,1.0294,0,0,11.9835,0,11.7933,1,1,1,1,0,0,0,0,0,0,0,0,1,0,0,1,Act1
8.0651,1.4028,1.0573,0,0,14.4234,0,12.9949,0,1,1,1,0,0,0,0,0,0,0,0,0,1,0,1,Act1
7.6954,1.5547,1.0717,0,0,25.2346,0,18.307,1,1,1,1,0,3,3,0,0,0,0,0,1,1,0,1,Act1
7.8417,1.4435,1.0164,0,0,11.3937,0,8.1121,0,1,1,1,0,0,0,0,0,0,0,0,0,0,0,1,Act1
7.7333,1.4926,0.8855,0,0,24.562,0,12.7758,1,1,1,1,0,0,0,0,0,1,0,0,1,1,0,1,Act1
7.7162,1.4686,0.9012,0,0,19.3254,0,16.0898,0,1,1,1,0,0,0,0,0,0,0,0,1,0,0,1,Act1
7.7258,1.2734,0.9828,0,0,12.5342,0,15.3562,1,1,1,1,0,1,1,0,0,0,0,0,1,1,0,1,Act-1
7.6667,1.3129,1.0206,0,0,10.4871,1,9.2375,1,1,0,1,0,0,0,0,0,0,0,0,1,0,1,1,Act1
7.6014,1.5386,1.0335,0,0,12.1642,0,6.1436,0,1,0,1,2,0,0,0,0,0,0,0,1,1,0,1,Act1
7.6369,1.4471,0.827,0,0,27.4561,0,10.3331,1,1,1,1,0,0,0,0,0,1,0,0,1,1,0,1,Act1
7.5873,1.405,1.1151,0,1,9.8046,0,6.1452,1,1,0,1,0,0,0,0,0,1,0,0,1,1,0,1,Act1
7.9167,1.374,0.9855,1,1,9.4048,0,10.3462,1,1,1,1,0,0,0,0,0,1,0,0,1,1,0,1,Act1
7.87,1.4115,0.9033,0,0,16.268,0,10.2522,0,1,1,1,4,0,0,0,0,1,0,0,0,1,1,1,Act1
7.8418,1.3154,1.0783,0,0,14.8599,0,11.0441,0,1,1,1,1,0,0,0,1,0,0,0,1,1,0,1,Act1
7.375,1.3047,0.9097,0,0,16.7958,0,8.1984,0,1,0,1,0,0,0,0,0,1,0,0,1,0,0,1,Act1
8.1944,1.5196,0.868,0,0,12.1686,0,11.8473,1,1,1,1,0,0,0,0,0,0,0,0,0,1,0,1,Act1
7.85,1.4375,0.5809,0,0,10.2384,0,7.1999,0,1,0,1,0,0,0,0,0,0,0,0,1,1,0,1,Act-1
8.1823,1.3994,0.6918,0,0,7.2872,0,3.4389,0,1,1,0,2,0,0,0,0,0,0,0,1,1,0,1,Act1
7.5833,1.4228,1.0915,0,1,15.9601,0,11.3198,1,1,1,1,0,0,0,0,0,0,0,0,1,0,0,1,Act1
7.5481,1.4165,1.1393,0,1,16.0293,0,10.7143,1,1,1,1,0,0,0,0,0,0,0,0,1,0,0,1,Act1
7.5247,1.4109,1.234,0,1,16.0804,0,11.8662,1,1,1,1,0,0,0,0,0,0,0,0,1,0,0,1,Act1
8.1637,1.4059,1.2114,0,1,14.7696,0,10.5522,1,1,1,1,0,0,0,0,0,0,0,0,1,0,0,1,Act-1
7.5625,1.4299,1.1042,0,1,15.9998,0,10.5522,1,1,1,1,0,0,0,0,0,0,0,0,1,0,0,1,Act1
7.54,1.4227,1.1183,0,1,16.0455,0,10.7177,1,1,1,1,0,0,0,0,0,0,0,0,1,0,0,1,Act1
7.6774,1.3978,0.8718,0,0,15.8802,0,10.2433,1,1,1,1,1,0,0,0,0,1,0,0,1,1,0,1,Act1
7.5611,1.2701,0.8005,0,0,14.4042,0,13.7297,1,1,1,1,0,1,1,0,0,0,0,0,1,0,0,1,Act1
7.8012,1.4321,1.0376,0,0,23.4984,0,14.5725,1,1,1,1,0,0,0,0,0,1,0,0,1,1,0,1,Act1
7.7391,1.4297,0.9392,0,0,13.7887,0,11.9394,1,1,1,1,0,0,0,0,0,0,0,0,1,0,0,1,Act1
7.2756,1.5281,1.1425,0,0,21.5573,0,9.7711,1,1,1,1,0,0,0,0,0,1,0,0,0,1,0,1,Act1
7.65,1.4972,1.0905,0,0,17.464,0,8.3233,0,1,1,1,0,0,0,0,0,0,0,0,0,0,0,1,Act1
7.9543,1.5483,1.075,0,0,22.1532,0,14.5109,1,1,1,1,0,0,0,0,0,0,0,0,1,1,0,1,Act1
7.8889,1.3634,0.7901,1,0,7.5143,0,7.9092,0,1,1,1,0,0,0,0,0,1,0,0,1,0,0,1,Act-1
7.9053,1.3222,1.2867,0,0,8.7224,0,8.4659,0,1,0,1,0,0,0,0,0,1,0,0,1,1,0,1,Act1
7.7778,1.2919,1.1365,0,0,8.7789,0,8.4659,0,1,0,1,0,0,0,0,0,1,0,0,1,1,0,1,Act1
7.9333,1.2919,1.0996,0,0,7.6313,0,7.09,0,1,0,1,0,0,0,0,0,1,0,0,1,1,0,1,Act1
7.8526,1.3148,1.0961,0,0,10.7385,0,7.9,1,1,1,1,0,1,1,0,0,1,0,0,1,1,0,1,Act1
7.9444,1.2866,1.3011,0,0,10.7539,0,7.9,0,1,0,1,0,0,0,0,0,1,0,0,1,1,0,1,Act1
8.4619,1.3963,1.2308,0,0,7.1415,0,9.4949,0,1,0,1,0,1,1,0,0,1,0,0,1,1,0,1,Act1
8.0403,1.4099,0.9538,0,0,11.9902,0,9.4949,0,1,0,1,0,1,1,0,0,1,0,0,1,1,0,1,Act1
8.108,1.2866,0.9656,0,0,9.366,0,7.8524,0,1,0,1,0,0,0,0,0,1,0,0,1,1,0,1,Act1
8.1451,1.2866,0.9628,0,0,7.8643,0,7.8087,0,1,0,1,0,1,1,0,0,1,0,0,1,1,0,1,Act1
7.5256,1.3884,1.2758,0,0,10.3539,0,7.2163,0,1,0,1,0,1,1,0,0,1,0,0,1,1,0,1,Act1
8.1451,1.2827,1.396,0,0,7.2703,0,7.8087,0,1,0,1,0,1,1,0,0,1,0,0,1,1,0,1,Act1
8.1821,1.2866,0.9622,0,0,5.8881,0,6.0891,0,1,0,1,0,2,2,0,0,1,0,0,1,1,0,1,Act1
8.0685,1.2766,1.0712,0,0,9.3448,0,8.4013,0,1,0,1,0,0,0,0,0,1,0,0,0,1,0,1,Act1
7.9866,1.521,1.0677,0,0,14.7957,0,13.0516,0,1,1,1,1,0,0,0,0,1,0,0,0,1,0,1,Act1
7.4615,1.3914,0.8045,0,0,14.6989,0,11.3325,0,1,0,1,0,0,0,0,0,1,0,0,1,1,0,1,Act1
7.6852,1.4385,0.8096,0,0,9.3353,0,9.2851,1,1,1,1,0,0,0,0,0,1,0,0,1,1,0,1,Act1
7.8013,1.2748,0.9714,0,0,8.3428,0,11.3138,0,1,1,1,0,0,0,0,0,0,0,0,1,1,0,1,Act1
8.1763,1.3679,0.872,0,0,10.7853,0,7.0661,0,1,0,1,0,0,0,0,0,1,0,0,1,1,1,1,Act1
8.1571,1.2885,1.069,0,0,10.7744,0,10.8143,0,1,0,1,0,0,0,0,0,1,0,0,0,1,0,1,Act1
8.1186,1.2866,0.8816,0,0,11.208,0,10.9336,0,1,0,1,0,0,0,0,0,1,0,0,1,1,0,1,Act1
8.1142,1.2802,1.2081,0,0,10.8924,0,11.685,0,1,0,1,0,0,0,0,0,1,0,0,0,1,0,1,Act1
8.4109,1.3072,1.3866,0,0,7.9916,0,6.813,0,1,0,1,0,0,0,0,0,1,0,0,1,1,0,1,Act1
8.2233,1.2839,1.3543,0,0,7.2161,0,6.3233,0,1,0,1,0,1,1,0,0,1,0,0,1,1,0,1,Act1
7.6412,1.2885,1.1579,0,0,11.4683,0,8.976,0,1,0,1,0,0,0,0,0,1,0,0,1,1,0,1,Act1
8.1442,1.2826,1.3544,0,0,10.8439,0,7.0661,0,1,0,1,0,0,0,0,0,1,0,0,1,1,0,1,Act1
7.5652,1.2895,1.0326,0,0,13.7787,0,6.5427,0,1,0,1,0,0,0,0,0,1,0,0,1,1,1,1,Act1
8.1442,1.2866,0.9092,0,0,10.9662,0,7.0661,0,1,0,1,0,0,0,0,0,1,0,0,1,1,0,1,Act1
8.1827,1.2866,0.9064,0,0,9.4589,0,6.3233,0,1,0,1,0,1,1,0,0,1,0,0,1,1,0,1,Act1
8.1442,1.2985,0.876,0,0,11.1722,0,7.0661,0,1,0,1,0,0,0,0,0,1,0,0,1,1,0,1,Act1
7.744,1.4577,1.0145,0,0,20.2799,0,10.3807,1,1,1,1,0,0,0,0,0,1,0,0,0,0,0,1,Act1
7.7391,1.4646,0.9837,0,0,15.2927,0,11.7368,0,1,1,1,0,1,1,0,0,1,0,0,1,1,0,1,Act1
7.8485,1.4765,0.7175,0,0,10.5299,0,10.0371,0,1,1,1,0,0,0,0,0,1,0,0,0,1,0,1,Act1
7.7639,1.4302,0.8518,0,0,9.5477,0,9.8057,1,1,1,1,2,0,0,0,0,0,0,0,0,1,1,1,Act1
8.0361,1.4145,0.9211,0,0,15.3534,0,9.9429,0,1,0,1,0,0,0,0,0,1,0,0,1,1,0,1,Act1
7.6159,1.5457,1.0898,0,0,17.0986,0,8.1441,0,1,0,1,0,1,1,0,0,1,0,0,1,1,0,1,Act1
8.0267,1.3984,1.0447,0,0,13.1812,0,13.9073,0,1,1,1,0,0,0,0,0,1,0,0,0,0,0,1,Act-1
7.8889,1.5162,1.0029,0,0,13.4702,0,12.0114,1,1,1,1,0,1,1,0,1,1,0,0,0,1,0,1,Act1
8.1597,1.3946,1.0813,0,0,12.0433,0,13.4008,0,1,1,1,1,1,1,0,0,1,0,0,0,0,0,1,Act1
8.1197,1.3874,0.9192,0,0,12.401,0,13.9607,0,1,1,1,1,0,0,0,0,1,0,0,0,0,0,1,Act1
8.1597,1.3946,1.0509,0,0,12.1673,0,13.9607,0,1,1,1,1,0,0,0,0,1,0,0,0,0,0,1,Act-1
8.2986,1.3946,0.9648,0,0,11.0919,0,12.8848,0,1,1,1,1,0,0,0,0,1,0,0,0,0,0,1,Act1
8.0586,1.4101,0.91,0,0,12.9422,0,11.5123,1,1,1,1,1,0,0,0,0,1,0,0,0,0,0,1,Act1
7.9928,1.3996,1.0176,0,0,13.4886,0,13.9607,0,1,1,1,1,0,0,0,0,1,0,0,0,0,0,1,Act1
8.141,1.3314,0,0,0,6.8945,0,5.2454,0,1,0,0,0,0,0,0,0,0,0,0,0,0,0,0,Act-1
8.053,1.3316,0.8239,0,0,6.8084,0,7.0382,1,1,1,1,0,0,0,0,0,0,0,0,0,1,0,0,Act-1
7.5159,1.776,0.7784,0,0,0,0,18.7739,0,1,1,1,0,0,0,0,0,0,0,0,0,0,0,0,Act1
7.8462,1.6183,0.9728,0,1,21.3667,0,11.5359,0,1,1,1,1,0,0,0,0,1,0,0,0,0,0,1,Act1
7.6556,1.4123,1.1494,0,0,18.9874,0,11.7498,1,1,0,1,0,0,0,0,0,1,0,0,1,1,0,1,Act1
8.0079,1.324,0.9699,0,0,7.1485,0,7.8199,1,1,1,1,0,0,0,0,0,0,0,0,0,1,0,0,Act-1
7.5833,1.2952,0.9356,0,0,8.3323,0,10.1526,0,1,1,1,0,0,0,0,0,1,0,0,1,1,0,0,Act1
7.8908,1.4193,1.0038,0,0,9.0713,0,6.8581,1,1,1,1,0,0,0,0,0,1,0,0,1,1,1,1,Act1
7.9178,1.443,0.7998,0,0,9.2075,0,7.9089,1,1,1,1,0,0,0,0,0,1,0,0,1,1,1,1,Act1
8.0733,1.443,0.9465,0,0,8.8665,0,6.8581,1,1,1,1,0,0,0,0,0,1,0,0,1,1,1,1,Act1
7.9083,1.3973,0.8536,0,0,16.5323,0,12.4756,0,1,0,1,0,0,0,0,0,0,0,0,1,0,0,1,Act1
7.9297,1.5447,1.0663,0,0,20.411,0,15.8243,1,1,1,1,0,0,0,0,0,0,0,0,1,1,0,1,Act1
7.8984,1.5447,1.0367,0,0,22.8063,0,15.8606,0,1,1,1,0,0,0,0,0,0,0,0,1,1,0,1,Act1
7.6014,1.5371,1.1818,0,0,12.1957,0,6.5045,0,1,0,1,2,0,0,0,0,0,0,0,1,1,0,1,Act1
7.7692,1.5104,0.757,0,0,13.0866,0,9.7147,0,1,1,1,0,0,0,0,0,0,0,0,1,0,0,1,Act1
7.8437,1.3835,0.9531,0,0,13.0108,0,14.5677,1,1,1,1,1,2,2,0,0,0,0,0,1,1,0,1,Act1
7.7121,1.3418,1.0951,0,0,12.0084,2,9.2402,1,1,0,1,0,0,0,0,0,0,0,0,1,1,1,1,Act1
7.6696,1.5119,1.0178,0,0,19.4371,0,9.744,1,1,1,1,0,2,2,0,0,0,0,0,1,1,0,1,Act1
7.5385,1.4492,1.0587,0,0,18.1142,0,11.3214,1,1,1,1,0,0,0,0,0,0,0,0,1,0,0,1,Act1
7.9247,1.5473,0.9249,0,0,21.6133,0,13.0696,1,1,1,1,0,0,0,0,0,1,0,0,1,1,0,1,Act-1
7.6071,1.4534,0.7798,0,0,9.7243,0,8.2531,0,1,0,1,0,0,0,0,0,1,0,0,1,1,1,1,Act1
7.7143,1.3114,1.0514,0,0,8.2931,1,9.4641,1,1,0,1,0,0,0,0,0,0,0,0,1,1,1,1,Act1
7.7569,1.3698,0.918,0,0,9.7637,0,8.8845,1,1,1,1,3,1,1,0,0,0,0,0,1,1,0,1,Act1
7.6494,1.3343,1.0476,0,0,14.4376,0,14.1142,0,1,1,1,1,0,0,0,0,0,0,0,0,1,0,1,Act1
7.5811,1.4569,0.945,0,0,16.3034,0,16.6927,1,1,1,1,0,0,0,0,0,1,0,0,1,1,0,1,Act1
7.8611,1.3441,1.0125,0,0,11.6282,0,9.3416,0,1,1,1,0,0,0,0,0,0,0,0,0,0,0,1,Act1
7.8305,1.3878,1.0123,0,0,22.2626,0,12.8556,1,1,1,1,0,0,0,0,0,0,0,0,0,0,0,1,Act1
7.6667,1.391,0.8997,0,1,16.9214,0,9.3938,0,1,1,1,0,0,0,0,0,1,0,0,1,0,0,1,Act1
7.6264,1.5569,0.9689,0,0,27.7527,0,15.2813,0,1,1,1,0,0,0,0,0,0,0,0,1,1,0,1,Act1
7.4545,1.4594,1.0726,0,0,19.0334,0,11.5503,0,1,0,1,0,0,0,0,0,0,0,0,1,1,0,1,Act1
7.6131,1.2969,1.1622,0,0,14.1786,0,8.559,1,1,1,1,0,0,0,0,0,0,0,0,0,0,0,1,Act1
7.619,1.3069,1.0204,0,0,12.2159,0,12.4349,0,1,1,1,0,0,0,0,0,0,0,0,0,0,0,1,Act1
7.7981,1.4062,0.7375,0,0,15.8205,0,11.7977,0,1,1,1,0,0,0,0,0,0,0,0,1,0,0,1,Act1
7.6768,1.4069,0.9428,0,0,17.7142,0,16.4625,1,1,1,1,0,2,2,0,0,0,0,0,1,1,0,1,Act1
7.899,1.3961,0.9701,0,0,13.9453,0,16.7324,1,1,1,1,0,1,1,0,0,0,0,0,1,1,0,1,Act1
7.5571,1.4675,1.0521,0,0,16.5175,0,16.4387,0,1,1,1,0,0,0,0,0,1,0,0,1,1,0,1,Act1
7.3819,1.393,1.0717,0,0,10.9427,0,11.161,0,1,0,1,0,0,0,0,0,1,0,0,1,1,0,1,Act1
7.8782,1.5759,1.1326,0,0,17.6968,0,10.8947,1,1,1,1,0,0,0,0,0,1,0,0,1,1,0,1,Act-1
8.0031,1.4637,1.0043,0,0,17.9934,0,12.9655,1,1,1,1,0,0,0,0,0,0,0,0,0,1,0,1,Act1
7.7688,1.4273,0.8096,0,0,23.9353,0,15.3626,1,1,1,1,0,0,0,0,0,1,0,0,1,1,0,1,Act-1
7.6979,1.4762,0.9149,0,0,15.1247,1,9.2968,1,1,1,1,0,2,2,0,1,1,0,0,1,1,1,1,Act1
7.6317,1.5179,0.9889,0,1,23.5454,0,14.6995,1,1,1,1,0,0,0,0,0,1,0,0,0,1,0,1,Act1
7.5278,1.4102,0.9572,0,1,16.3046,0,14.3901,1,1,1,1,0,0,0,0,0,1,0,0,0,1,0,1,Act1
7.55,1.4102,0.9766,0,1,16.2577,0,14.4336,1,1,1,1,0,0,0,0,1,1,0,0,0,1,0,1,Act1
8.1121,1.3663,1.2748,0,0,15.1918,0,13.4884,1,1,1,1,3,0,0,0,0,0,0,0,0,1,0,1,Act1
7.8712,1.5735,0.9746,0,0,26.5169,0,15.2122,0,1,1,1,0,0,0,0,0,0,0,0,1,1,0,1,Act1
7.8173,1.2461,1.0766,0,0,8.9453,0,8.6913,1,1,1,1,1,0,0,0,0,0,0,0,0,0,0,1,Act1
7.9219,1.5387,0.8829,0,0,22.7472,0,15.2209,0,1,1,1,0,0,0,0,0,0,0,0,1,1,0,1,Act1
7.8984,1.5387,0.8965,0,0,23.0307,0,14.896,0,1,1,1,0,0,0,0,0,0,0,0,1,1,0,1,Act-1
8.0859,1.5387,1.064,0,0,20.7622,0,15.3103,0,1,1,1,0,0,0,0,0,0,0,0,1,1,0,1,Act1
8.375,1.5097,1.0496,0,0,19.5324,0,15.3103,1,1,1,1,0,0,0,0,0,0,0,0,1,1,0,1,Act-1
7.9543,1.5471,0.9576,0,0,22.3326,0,15.1944,0,1,1,1,1,0,0,0,0,1,0,0,1,1,0,1,Act1
8.1458,1.4882,0.9799,0,0,16.7901,0,12.1773,1,1,1,1,0,0,0,0,0,0,0,0,0,1,0,1,Act1
7.9024,1.6431,0.9997,0,1,25.6316,0,15.9497,1,1,1,1,0,0,0,0,0,1,0,0,1,1,0,1,Act1
8.0027,1.534,1.0095,0,0,20.5637,0,11.7406,1,1,1,1,0,1,1,0,0,0,0,0,1,1,0,1,Act-1
7.9089,1.4381,1.0314,0,0,18.2236,0,11.7406,1,1,1,1,0,1,1,0,0,0,0,0,1,1,0,1,Act1
8.1714,1.5145,0.9366,0,0,18.8719,0,13.9048,1,1,1,1,1,0,0,0,0,0,0,0,0,1,0,1,Act-1
8.0353,1.4661,1.0409,0,0,19.5672,0,12.1773,1,1,1,1,0,0,0,0,0,0,0,0,0,1,0,1,Act1
7.9417,1.5907,1.1222,0,0,24.0174,0,13.0262,1,1,1,1,0,0,0,0,0,0,0,0,0,1,0,1,Act1
7.9066,1.5431,1.056,0,0,18.5844,0,15.7954,1,1,1,1,0,0,0,0,0,0,0,0,1,1,0,1,Act1
8.0345,1.5431,0.9913,0,0,17.3805,0,16.2767,1,1,1,1,0,0,0,0,0,0,0,0,1,1,0,1,Act1
8.1172,1.546,0.8882,0,0,18.0578,0,15.1752,1,1,1,1,0,0,0,0,0,0,0,0,1,1,0,1,Act1
7.9624,1.5172,0.9476,0,0,16.3612,0,15.1364,1,1,1,1,1,0,0,0,0,0,0,0,1,1,0,1,Act-1
7.8626,1.6342,1.0192,0,0,30.6389,0,18.2481,1,1,1,1,0,0,0,0,0,0,0,0,1,1,0,1,Act1
7.9957,1.5447,0.9865,0,0,19.5642,0,15.8048,1,1,1,1,0,0,0,0,0,0,0,0,1,1,0,1,Act1
8.1172,1.5447,0.7842,0,0,18.0042,0,14.4837,1,1,1,1,0,0,0,0,0,0,0,0,1,1,0,1,Act1
7.9621,1.542,0.9732,0,0,19.8093,0,14.4837,1,1,1,1,0,0,0,0,0,0,0,0,1,1,0,1,Act1
7.8925,1.6271,0.9811,0,0,29.3879,0,18.2344,1,1,1,1,0,0,0,0,0,0,0,0,1,1,0,1,Act1
7.9957,1.5502,0.9741,0,0,19.5874,0,15.1074,1,1,1,1,0,0,0,0,0,0,0,0,1,1,0,1,Act1
8.1172,1.5502,0.8878,0,0,18.1807,0,15.1849,1,1,1,1,0,0,0,0,0,0,0,0,1,1,0,1,Act1
8.0194,1.5175,1.0144,0,0,17.3324,0,14.3391,1,1,1,1,0,0,0,0,0,0,0,0,1,1,0,1,Act1
7.9866,1.5471,0.963,0,0,19.3592,0,13.7419,1,1,1,1,0,0,0,0,0,0,0,0,1,1,0,1,Act1
7.8262,1.5252,1.094,0,0,19.0553,0,16.6483,1,1,1,1,0,0,0,0,0,0,0,0,1,1,0,1,Act1
7.9387,1.6281,1.0991,0,0,21.8563,0,16.2193,1,1,1,1,0,0,0,0,0,0,0,0,1,1,0,1,Act-1
7.9866,1.5471,0.9592,0,0,19.3936,0,14.477,1,1,1,1,0,0,0,0,0,0,0,0,1,1,0,1,Act1
7.9191,1.6281,1.0673,0,0,20.2326,0,16.2378,1,1,1,1,1,1,1,0,0,0,0,0,1,1,0,1,Act1
7.9224,1.4245,1.0035,0,0,12.6767,0,14.3212,1,1,1,1,0,0,0,0,0,0,0,0,1,1,0,1,Act1
7.9856,1.5566,1.0278,0,0,18.152,0,13.3035,1,1,1,1,0,0,0,0,0,0,0,0,0,1,0,1,Act-1
7.9969,1.4574,1.0547,0,0,20.1652,0,12.6403,1,1,1,1,0,0,0,0,0,0,0,0,0,1,0,1,Act1
7.9613,1.4492,0.9684,0,0,20.5463,0,13.699,1,1,1,1,0,0,0,0,0,0,0,0,0,1,0,1,Act1
7.9543,1.5471,0.9339,0,0,22.0625,0,15.0498,0,1,1,1,0,0,0,0,0,0,0,0,1,1,0,1,Act-1
8.0042,1.5306,0.9088,0,0,20.3063,0,15.3709,0,1,1,1,0,0,0,0,0,0,0,0,1,1,0,1,Act1
7.9405,1.5159,0.9241,0,0,20.6346,0,15.2775,1,1,1,1,0,0,0,0,0,0,0,0,1,1,0,1,Act1
7.9644,1.511,0.8233,0,0,21.8866,0,16.825,0,1,1,1,0,0,0,0,0,0,0,0,1,0,0,1,Act1
7.9644,1.5149,0.9738,0,0,22.4648,0,15.8515,1,1,1,1,0,0,0,0,0,0,0,0,1,0,0,1,Act-1
7.9141,1.5625,1.0125,0,0,27.8073,0,16.2515,1,1,1,1,0,0,0,0,0,0,0,0,1,1,0,1,Act1
7.8984,1.5383,0.9757,0,0,22.7161,0,15.2703,0,1,1,1,0,0,0,0,0,0,0,0,1,1,0,1,Act1
7.9758,1.5471,0.8864,0,0,23.5873,0,14.2027,0,1,1,1,0,0,0,0,1,0,0,0,1,1,0,1,Act1
7.9644,1.5447,0.9564,0,0,21.9486,0,15.6227,0,1,1,1,0,0,0,0,0,0,0,0,1,1,0,1,Act1
7.9318,1.542,0.9444,0,0,22.1969,0,14.4839,0,1,1,1,0,0,0,0,0,0,0,0,1,1,0,1,Act-1
7.922,1.5471,0.9392,0,0,24.4651,0,15.0707,0,1,1,1,0,0,0,0,0,0,0,0,1,1,0,1,Act1
7.9453,1.5625,0.9788,0,0,25.4132,0,15.2445,1,1,1,1,0,0,0,0,0,1,0,0,1,1,0,1,Act1
7.9758,1.5471,0.8864,0,0,23.6183,0,14.2027,0,1,1,1,0,0,0,0,1,0,0,0,1,1,0,1,Act1
8.05,1.436,0.9638,0,0,16.2193,0,9.7094,0,1,1,1,0,0,0,0,0,0,0,0,0,1,0,1,Act1
7.9453,1.5625,0.9788,0,0,25.7882,0,16.2515,1,1,1,1,0,0,0,0,0,1,0,0,1,1,0,1,Act1
7.9387,1.5042,0.9195,0,0,20.7399,0,15.2775,1,1,1,1,0,0,0,0,0,0,0,0,1,1,0,1,Act1
7.9543,1.5221,1.0539,0,0,22.2175,0,15.6437,1,1,1,1,1,0,0,0,0,1,0,0,1,0,0,1,Act1
7.8284,1.2036,0.9235,0,0,6.9919,0,7.9449,0,1,0,1,0,0,0,0,0,0,0,0,0,0,0,0,Act1
7.9398,1.3496,0.9472,0,0,16.2478,0,8.4643,0,1,1,1,0,0,0,0,0,0,0,0,0,0,0,1,Act1
7.9722,1.4002,0.978,0,0,18.0708,0,14.206,0,1,1,1,0,0,0,0,0,0,0,0,1,1,0,1,Act1
8.0856,1.3636,1.0913,0,0,10.1631,0,18.6111,0,1,1,1,0,0,0,0,0,0,0,0,0,0,0,1,Act-1
7.9583,1.3769,0.2598,0,0,10.9841,0,5.7081,1,1,1,0,0,0,0,0,0,0,0,0,1,0,0,1,Act1
7.7071,1.2525,0.806,0,0,15.518,0,15.5548,1,1,1,1,0,1,1,0,0,0,0,0,1,1,0,1,Act1
7.75,1.4068,0.8258,0,0,13.8091,0,12.1521,0,1,1,1,0,0,0,0,0,0,0,0,1,0,0,1,Act1
7.7361,1.4756,0.9255,0,0,18.8737,0,14.7684,1,1,1,1,0,0,0,0,0,0,0,0,1,0,0,1,Act1
7.7037,1.4775,0.8552,0,0,21.3054,0,16.7653,0,1,1,1,0,0,0,0,0,0,0,0,1,0,0,1,Act1
7.6814,1.4764,0.878,0,0,23.5308,0,16.8863,0,1,1,1,0,0,0,0,0,0,0,0,1,0,0,1,Act1
7.6974,1.4692,0.8814,0,0,19.3868,0,15.7608,0,1,1,1,0,0,0,0,0,0,0,0,1,0,0,1,Act1
7.6447,1.5861,0.8844,0,0,28.1284,0,18.8626,0,1,1,1,0,0,0,0,0,0,0,0,1,0,0,1,Act-1
7.7255,1.5065,0.87,0,0,26.6815,0,16.7166,0,1,1,1,0,0,0,0,0,0,0,0,1,1,0,1,Act-1
7.6263,1.3643,0.9504,0,0,24.0248,0,17.0419,1,1,1,1,0,0,0,0,0,0,0,0,1,1,0,1,Act1
7.6849,1.3208,1.1988,0,0,12.7154,0,11.9083,0,1,1,1,0,0,0,0,0,0,0,0,0,1,0,1,Act1
7.7284,1.3766,1.0394,0,0,19.0025,0,11.638,0,1,1,1,1,0,0,0,0,0,0,0,0,0,0,1,Act1
7.5774,1.376,1.0178,0,0,11.7381,0,13.895,0,1,1,1,0,2,2,0,0,1,0,0,1,1,0,1,Act1
7.5,1.649,0.9348,0,0,32.5844,0,13.1153,0,1,0,1,0,0,0,0,0,1,0,0,1,1,0,1,Act1
7.4792,1.5411,0.9926,0,0,22.6514,0,9.3948,0,1,0,1,1,0,0,0,0,1,0,0,1,1,0,1,Act1
7.5307,1.4679,0.8664,0,1,12.1721,0,8.8413,0,1,0,1,0,0,0,0,0,1,0,0,0,1,0,1,Act1
8.391,1.2952,1.185,0,0,11.6393,0,7.4509,1,1,1,1,0,0,0,1,0,0,0,1,0,0,0,1,Act1
8.0694,1.4191,1.0388,0,0,13.0514,0,13.1475,1,1,1,1,0,0,0,0,0,0,0,1,0,0,0,1,Act1
7.75,1.4425,1.1545,0,0,26.9202,0,12.7396,1,1,1,1,1,0,0,0,0,0,0,0,1,1,0,1,Act-1
8.1177,1.3152,0.9696,1,0,17.9779,0,16.1516,1,1,1,1,0,1,1,0,1,0,0,0,0,1,0,1,Act-1
7.7813,1.3306,1.2961,0,0,13.3562,0,6.7722,0,1,0,1,0,0,0,0,1,0,0,0,0,0,0,1,Act1
7.6801,1.1437,0.9657,0,0,7.1594,0,15.0499,1,1,1,1,0,1,1,0,0,0,0,0,0,0,0,0,Act-1
7.9543,1.5522,1.0465,0,0,22.2655,0,14.2545,1,1,1,1,0,0,0,0,0,0,0,0,1,1,0,1,Act1
7.4808,1.5467,0.908,0,1,22.3584,0,10.3029,0,1,0,1,0,0,0,0,0,1,0,0,1,1,0,1,Act1
7.7569,1.5543,0.9716,0,1,19.6855,0,6.5022,0,1,0,1,0,0,0,0,0,1,0,0,1,1,0,1,Act1
7.7323,1.4803,0.9102,0,0,21.6519,0,11.9192,1,1,1,1,0,0,0,0,0,0,0,0,0,1,0,1,Act1
7.7667,1.4594,0.8948,0,0,19.1124,0,10.7859,1,1,1,1,0,0,0,0,0,0,0,0,0,1,0,1,Act1
7.8077,1.4008,0.7595,0,0,7.5456,0,11.4592,1,1,1,1,0,0,0,0,0,0,0,0,0,0,0,1,Act1
7.4136,1.5098,1.0063,0,0,18.8635,0,8.6218,0,1,0,1,0,0,0,0,0,1,0,0,1,1,0,1,Act1
7.7815,1.5227,1.0946,0,0,16.0803,0,11.5835,1,1,1,1,0,0,0,0,0,0,0,0,1,0,0,1,Act1
7.6944,1.405,0.9948,0,0,15.761,0,8.7686,0,1,1,1,0,0,0,0,0,0,0,0,1,0,0,1,Act1
7.7718,1.3897,0.7583,0,0,7.3127,0,9.2034,1,1,1,1,0,0,0,0,1,0,0,0,1,1,0,1,Act1
7.5994,1.331,0.6941,0,0,5.9333,0,9.1946,0,1,1,1,0,0,0,0,1,0,0,0,0,1,0,1,Act1
7.8563,1.313,1.0443,0,0,12.051,0,8.767,0,1,1,1,0,0,0,0,0,0,0,0,1,1,0,1,Act-1
7.7429,1.2861,1.1096,0,0,10.9654,0,8.666,1,1,1,1,0,0,0,0,0,0,0,0,1,1,0,1,Act1
7.54,1.3897,0.9556,0,0,12.3361,0,11.5691,1,1,1,1,1,0,0,0,0,0,0,0,0,0,0,1,Act1
7.6828,1.5053,1.0411,0,0,17.6838,2,11.4832,1,1,1,1,0,1,1,0,0,1,0,0,1,1,1,1,Act1
7.6944,1.5137,1.1526,0,0,11.2258,0,8.332,1,1,1,1,0,0,0,0,0,0,0,0,1,1,0,1,Act1
7.5625,1.4775,1.0209,0,0,8.1101,0,6.7405,0,1,1,1,0,0,0,0,0,0,0,0,1,1,0,1,Act1
7.5556,1.4712,1.2286,0,0,9.9893,0,7.3975,1,1,1,1,0,2,2,0,0,0,0,0,1,1,0,1,Act1
7.525,1.3188,1.0587,0,0,10.3778,0,8.3903,0,1,1,1,0,0,0,0,0,0,0,0,0,0,0,1,Act1
7.5682,1.0709,0,0,0,0,0,5.0663,0,1,0,0,0,0,0,0,0,0,0,0,0,0,0,0,Act-1
7.7857,1.3463,0.7073,0,0,9.6113,0,6.4347,0,1,0,0,0,0,0,0,0,0,0,0,1,0,0,0,Act1
7.7929,1.4603,1.6937,0,1,3.4392,1,7.5786,1,1,1,1,0,0,0,0,0,1,0,0,0,1,1,1,Act-1
7.7308,1.5277,1.0552,0,0,18.4592,0,11.6183,1,1,1,1,0,0,0,0,0,1,0,0,1,0,0,1,Act1
7.6049,1.5628,0.9992,0,0,19.2008,0,11.0053,0,1,1,1,0,0,0,0,0,1,0,0,1,1,0,1,Act1
7.6733,1.3352,1.2316,0,0,10.2121,2,8.8606,1,1,0,1,0,0,0,0,0,0,0,0,1,1,1,1,Act1
7.4948,1.3602,0.8456,0,0,11.9102,0,15.0609,0,1,1,1,2,1,1,0,0,0,0,0,1,1,0,1,Act1
7.8889,1.5667,0.9066,0,0,23.6532,0,13.3329,0,1,0,1,0,0,0,0,0,1,0,0,1,1,0,1,Act1
7.5054,1.5616,0.8926,0,0,26.4813,0,13.4071,0,1,1,1,0,0,0,1,0,1,0,0,1,1,0,1,Act1
7.5306,1.5376,0.8779,0,0,21.9654,0,10.6986,0,1,0,1,0,1,1,0,0,1,0,0,1,1,0,1,Act-1
7.5345,1.5385,0.8974,0,0,21.9362,0,10.637,0,1,0,1,0,1,1,0,0,1,0,0,1,1,0,1,Act1
7.55,1.5337,0.8955,0,0,21.9187,0,10.0188,0,1,1,1,0,1,1,1,0,1,0,0,1,1,0,1,Act-1
7.5833,1.5376,0.9541,0,0,21.3309,0,11.5597,0,1,1,1,0,1,1,0,0,1,0,0,1,1,0,1,Act1
7.4368,1.4241,0.8721,0,0,18.2659,0,13.0722,0,1,0,1,0,1,1,0,0,1,0,0,1,1,0,1,Act1
7.4222,1.4158,0.9665,0,0,18.3277,0,13.5928,0,1,0,1,0,1,1,0,0,1,0,0,1,1,0,1,Act1
7.4409,1.4161,0.9642,0,0,18.3157,0,13.2241,0,1,1,1,0,1,1,1,0,1,0,0,1,1,0,1,Act1
7.3869,1.3116,0.9702,0,0,10.4113,0,9.7902,0,1,1,1,0,1,1,1,0,1,0,0,1,1,0,1,Act1
8.1739,1.4387,0.8733,0,0,10.8089,0,10.5497,1,1,1,1,0,0,0,0,0,0,0,0,1,0,0,1,Act1
7.6645,1.2855,1.1696,0,1,3.3998,0,11.6875,0,1,0,1,0,2,2,0,0,1,0,0,0,1,1,1,Act1
7.8222,1.3941,0.9309,0,0,10.8952,0,12.6162,1,1,1,1,0,0,0,0,0,1,0,0,1,1,0,1,Act1
7.8387,1.4982,1.057,0,1,11.5262,0,7.0743,1,1,1,1,0,3,3,0,0,1,0,0,1,1,0,1,Act1
7.5069,1.5592,0.9679,0,1,22.1132,0,7.2585,0,1,0,1,0,0,0,0,0,1,0,0,1,1,0,1,Act1
7.8011,1.4304,1.036,0,0,13.1867,0,13.7005,0,1,1,1,0,0,0,0,0,0,0,0,0,0,0,1,Act1
8.0667,1.3059,1.0236,0,0,11.2566,0,7.7667,0,1,1,1,0,0,0,0,1,0,0,0,0,1,0,1,Act1
7.8867,1.5253,1.0886,0,1,17.1119,0,10.8833,0,1,1,1,0,0,0,0,0,0,0,0,1,0,0,1,Act1
7.7311,1.5294,1.0536,0,1,18.7183,0,10.9338,0,1,1,1,0,0,0,0,0,0,0,0,1,0,0,1,Act1
8.1196,1.3351,1.1322,0,0,3.823,1,7.0922,0,1,1,1,0,0,0,0,0,0,0,0,1,0,1,1,Act1
7.5054,1.2317,0.9621,0,0,7.6218,0,15.5497,1,1,1,1,0,2,2,0,1,1,0,0,1,1,0,1,Act1
7.3448,1.2634,1.0011,0,0,12.7343,0,11.5288,0,1,1,1,0,1,1,0,0,1,0,0,1,1,0,1,Act1
8.1019,1.5628,1.1572,0,0,9.5376,0,8.279,0,1,0,1,0,0,0,0,0,0,0,0,0,0,0,1,Act1
7.5417,1.5658,1.0685,0,1,15.4944,0,6.8981,0,1,0,1,0,0,0,0,0,1,0,0,1,1,0,1,Act1
8.8225,1.3527,0.9519,0,0,6.7203,0,8.0752,1,1,1,1,0,0,0,0,0,1,0,0,0,0,0,1,Act-1
8.5926,1.4018,0.602,0,1,6.9631,0,5,0,1,1,0,0,0,0,0,0,1,0,0,1,1,0,1,Act1
8.3219,1.267,1.1826,0,0,1.2167,0,3,1,0,1,0,0,0,0,0,0,0,1,0,0,0,0,0,Act-1
7.9653,1.3372,1.3379,0,0,3.1586,0,15.4521,1,1,1,1,2,0,0,0,0,1,0,0,0,1,1,1,Act-1
7.7759,1.3651,1.227,0,0,15.0039,0,14.5249,1,1,1,1,0,1,1,0,0,1,0,0,1,1,0,1,Act-1
7.4785,1.5641,0.912,0,0,24.9069,0,15.2555,0,1,0,1,0,0,0,0,0,1,0,0,1,1,0,1,Act1
7.4706,1.647,0.9763,0,0,31.2562,0,14.8652,0,1,0,1,0,0,0,0,0,1,0,0,1,1,0,1,Act-1
7.414,1.4143,0.9665,0,0,16.6609,0,15.2654,0,1,0,1,0,1,1,0,0,1,0,0,1,1,0,1,Act1
7.6075,1.4143,1.1355,0,0,15.4694,0,14.6557,0,1,0,1,0,1,1,0,0,1,0,0,1,1,0,1,Act1
7.9851,1.4359,0.8476,0,0,16.4738,0,13.2576,1,1,1,1,0,1,1,0,0,0,0,0,0,0,0,1,Act1
7.7901,1.3704,0.9419,0,0,9.0302,0,8.548,1,1,1,1,0,2,2,0,0,0,0,0,0,1,0,1,Act1
7.6452,1.4956,0.9867,0,1,17.9083,0,7.6213,1,1,1,1,0,0,0,0,0,1,0,0,1,1,0,1,Act1
7.954,1.3879,0.8038,0,0,8.0488,1,6.3053,1,1,1,1,0,0,0,0,0,0,0,0,1,1,1,1,Act1
7.6119,1.4455,0.9523,0,0,14.0698,0,12.1666,1,1,1,1,3,2,2,0,1,1,0,0,0,1,0,1,Act1
7.5725,1.5479,0.7849,0,0,21.9873,0,10.5241,0,1,0,1,0,0,0,0,0,1,0,0,1,1,1,1,Act1
7.6806,1.347,1.1043,0,1,7.5033,0,11.8167,1,1,1,1,0,0,0,0,0,1,0,0,0,1,0,1,Act1
7.6842,1.621,0.9935,0,1,32.3175,0,16.1158,0,1,1,1,0,0,0,0,0,1,0,0,1,1,0,1,Act1
7.9633,1.5128,1.0346,0,0,18.196,0,13.8373,0,1,1,1,0,0,0,0,0,0,0,0,0,0,0,1,Act1
7.5494,1.6416,0.9893,0,0,21.538,0,9.8538,0,1,0,1,0,1,1,0,0,1,0,0,1,1,0,1,Act1
7.5714,1.4931,1.0358,0,0,15.9842,0,7.4155,1,1,1,1,0,0,0,0,0,1,0,0,0,1,0,1,Act1
8.2996,1.3244,0.1104,0,0,4.5761,0,5.4507,0,1,0,0,1,0,0,0,0,1,0,0,0,1,0,0,Act1
8.0852,1.396,1.0361,0,0,12.4906,0,13.9607,1,1,1,1,1,1,1,0,0,1,0,0,0,1,0,1,Act1
7.5926,1.277,1.0109,0,0,11.4738,0,16.0927,1,1,1,1,0,0,0,0,0,1,0,0,1,1,0,1,Act1
8.3341,1.5264,1.2443,1,0,14.8354,0,13.4816,1,1,1,1,0,2,2,0,0,0,0,0,1,1,1,1,Act1
8.0632,1.539,0.9922,0,0,10.6043,1,8.4875,0,1,1,1,0,0,0,0,0,1,0,0,1,1,1,1,Act1
8.2361,1.4286,0.9539,0,0,9.4378,0,11.0367,1,1,1,1,0,0,0,0,0,1,0,0,1,1,0,1,Act1
8.247,1.4316,0.9634,0,0,11.6677,0,11.6763,1,1,1,1,0,0,0,0,0,1,0,0,1,1,0,1,Act1
8,1.5436,1.0124,0,0,16.8918,0,13.8652,0,1,1,1,0,0,0,0,0,0,0,0,1,1,0,1,Act1
8.0476,1.3527,1.1679,0,0,12.4779,0,9.1597,1,1,1,1,0,0,0,0,0,0,0,0,1,1,0,1,Act1
7.6035,1.4797,0.9452,0,0,15.983,0,8.125,0,1,0,1,0,0,0,0,0,1,0,0,1,1,0,1,Act1
7.6559,1.5114,0.9907,0,0,22.5624,0,10.5561,0,1,1,1,1,0,0,0,0,1,0,0,1,1,0,1,Act1
7.3851,1.5282,0.9775,0,0,30.1035,0,11.5026,0,1,0,1,0,0,0,0,0,1,0,0,1,1,0,1,Act1
7.3457,1.4391,0.9771,0,0,19.4533,0,10.8593,0,1,0,1,0,0,0,0,0,1,0,0,1,1,0,1,Act1
7.6157,1.4946,0.9949,0,0,23.7608,0,13.1737,1,1,1,1,0,0,0,0,0,1,0,0,1,1,0,1,Act1
8.2996,1.3224,0,0,0,4.9144,0,4.7785,0,0,0,0,0,0,0,0,0,0,0,0,0,0,0,0,Act-1
8.3648,1.3132,0,0,0,3.1283,0,5.1537,0,0,0,0,0,0,0,0,0,0,0,0,0,0,0,0,Act-1
8.2996,1.3202,0,0,0,4.7009,0,4.3037,0,0,0,0,0,0,0,0,0,0,0,0,0,0,0,0,Act-1
7.6611,1.2424,1.1008,0,0,7.4506,0,11.3874,1,1,1,1,0,1,1,0,1,0,0,0,1,1,0,1,Act1
8.131,1.4696,0.8902,0,0,12.6542,0,16.6053,1,1,1,1,1,1,1,0,0,0,0,0,0,1,0,1,Act-1
7.8467,1.3603,0.8234,0,0,7.6457,0,10.3085,1,1,1,1,0,1,1,0,0,1,0,0,1,1,0,1,Act1
7.7667,1.3569,0.8836,0,0,7.6091,0,10.3085,1,1,1,1,0,1,1,0,0,1,0,0,1,1,0,1,Act1
7.6861,1.3266,1.039,0,0,9.7484,0,10.1224,0,1,1,1,0,1,1,0,0,1,0,0,1,1,0,1,Act1
7.7348,1.4617,1.1893,0,0,7.0915,0,8.3199,1,1,1,1,0,0,0,0,0,1,0,0,0,1,0,1,Act1
7.7029,1.4505,0.9671,0,0,7.26,0,7.8339,1,1,1,1,0,0,0,0,0,1,0,0,0,1,0,1,Act1
7.9021,1.2959,0.5778,0,0,7.2213,1,8.0581,0,1,1,1,0,0,0,0,0,0,0,0,0,1,1,1,Act1
8.0545,1.1135,0.892,0,0,0,0,6.2172,0,1,1,1,0,0,0,0,0,0,0,0,0,0,0,0,Act-1
8.0032,1.1054,0.8596,0,0,0,0,6.2172,0,1,1,1,0,0,0,0,0,0,0,0,0,0,0,0,Act-1
7.1987,1,0,0,0,0,0,3.8205,0,0,0,0,0,0,0,0,0,0,0,0,0,0,1,0,Act-1
7.9647,1.0619,0.8537,0,0,0,0,6.2172,0,1,1,1,0,0,0,0,0,0,0,0,0,0,0,0,Act-1
7.2576,1,0,0,0,0,0,3.8471,0,0,0,0,0,0,0,0,0,0,0,0,0,0,0,0,Act-1
7.8485,1.2656,0,0,0,7.7931,0,4.3952,0,0,0,0,0,0,0,0,0,0,0,0,0,0,0,0,Act-1
8.1214,1.414,0.8973,0,0,16.1036,0,12.6746,1,1,1,1,0,0,0,0,0,1,0,0,1,0,0,1,Act-1
8.7571,1.3133,1.0462,0,0,0.7163,0,5.6366,0,1,1,1,0,0,0,0,0,0,0,0,1,0,0,1,Act-1
7.6765,1.2513,0.8511,0,0,9.738,0,7.3138,0,1,0,1,0,0,0,0,0,0,0,0,1,1,0,0,Act-1
9.0833,1.318,0,0,0,1.7147,0,2.971,1,0,0,0,0,0,0,0,0,0,0,0,0,1,1,0,Act-1
7.8414,1.3095,0.4732,0,0,7.6059,0,12.4949,0,1,1,1,0,0,0,0,0,0,0,0,0,0,0,1,Act-1
7.4509,1.2594,0.8066,0,0,6.6826,0,18.2131,0,1,1,1,0,0,0,0,0,0,0,0,0,0,0,1,Act-1
7.6338,1.1733,0.8039,1,0,0,0,17.6968,0,1,1,1,0,0,0,0,0,0,0,0,0,0,0,0,Act-1
7.5571,1.5017,1.1029,0,0,21.2146,0,12.2178,1,1,1,1,0,1,1,0,0,0,0,0,1,0,0,1,Act1
8.2141,1.2566,0.9276,0,0,4.565,0,9.9997,0,1,1,1,0,0,0,0,0,0,1,0,0,0,0,0,Act1
8.5021,1.4674,1.1851,0,0,1.9729,0,8.7297,1,1,1,1,0,1,1,0,0,1,0,1,1,1,0,1,Act-1
8.0385,1.2339,0.82,1,0,1.7233,0,6.9476,0,1,1,1,0,0,0,0,0,0,0,0,1,1,0,0,Act1
7.7524,1.2684,0.6475,0,0,9.6499,0,5.8436,0,1,0,0,0,0,0,0,0,0,0,0,1,1,0,0,Act-1
7.7157,1.2513,0.8049,0,0,9.6633,0,5.4273,0,1,0,1,0,0,0,0,0,0,0,0,1,1,0,0,Act-1
8.3135,1.2465,0.8078,0,0,8.9826,0,5.4273,0,1,1,1,0,0,0,0,0,0,1,1,1,1,0,0,Act-1
8.2714,1.2271,1.0162,0,1,5.6462,6,17.115,1,1,1,1,1,5,5,0,0,1,0,1,1,1,1,1,Act-1
8.2288,1.3033,1.0238,0,1,15.62,5,11.7929,1,1,1,1,1,5,5,0,0,1,0,0,1,1,1,1,Act-1
7.913,1.3324,0.8897,0,0,15.6609,0,9.1761,1,1,1,1,0,0,0,0,0,0,0,0,1,1,0,1,Act-1
7.7187,1.1617,0.9553,0,0,14.797,0,11.8345,1,1,1,1,1,0,0,0,0,0,0,0,0,1,0,1,Act-1
8.2083,1.5165,1.1262,0,0,4.6464,0,12.0395,0,1,1,1,0,0,0,0,0,0,0,0,1,0,0,1,Act-1
8.3789,1.4394,1.0819,0,1,10.1686,0,6.6683,0,1,1,1,1,0,0,0,0,0,0,1,0,0,0,1,Act-1
8.3989,1.4376,1.0064,0,1,9.9601,0,6.6683,0,1,1,1,1,0,0,0,0,0,0,1,0,0,0,1,Act1
7.45,1.4127,0,0,0,10.3429,0,4.3952,0,0,0,0,0,0,0,0,0,0,0,0,0,0,0,1,Act-1
8.1552,1.2363,0.0626,0,0,3.3226,0,5.1537,0,1,0,0,0,0,0,0,0,0,0,0,0,0,0,0,Act-1
7.6389,1.2859,0.9736,0,0,4.0832,0,8.1344,1,1,1,1,0,0,0,0,0,0,0,0,0,0,0,1,Act1
8.0981,1.2553,0.9142,0,0,2.8185,2,15.756,1,1,1,1,0,2,2,0,0,0,0,0,0,1,1,0,Act-1
7.8333,1.5414,0.5605,0,0,14.5927,0,11.9185,0,1,0,1,0,0,0,0,0,1,0,0,0,1,0,1,Act1
8.2696,1.3261,1.0528,0,0,7.2123,0,6.9158,0,1,1,1,1,0,0,0,0,1,0,1,0,0,1,1,Act-1
7.7857,1.279,0.4875,0,0,9.6113,0,6.3233,0,1,0,0,0,0,0,0,0,0,0,0,1,1,0,0,Act-1
7.7267,1.4541,0.8448,0,1,13.7644,0,9.6625,0,1,1,1,0,0,0,0,0,1,0,0,1,0,0,1,Act1
7.6884,1.3819,1.2778,0,0,13.8946,0,6.3654,0,1,0,1,0,0,0,0,0,0,0,0,0,0,1,1,Act1
7.971,1.4229,0.9097,0,0,13.8495,0,12.6641,0,1,1,1,0,0,0,0,0,0,0,0,0,0,0,1,Act-1
7.5658,1.2388,0.7097,0,0,2.1182,0,5.5149,0,1,1,1,0,0,0,0,0,1,0,0,0,0,0,0,Act-1
7.3657,1.2422,0.678,0,0,4.6624,0,5.3596,0,1,0,1,0,0,0,0,0,1,0,0,0,0,0,0,Act-1
8.3732,1.2178,1.4262,2,0,1.9156,0,4.257,0,1,1,1,0,0,0,0,0,0,0,0,0,0,0,0,Act-1
7.8438,1.218,1.0695,0,0,6.0262,0,3.7413,0,1,1,1,0,0,0,0,0,0,0,0,0,0,0,0,Act-1
8.8048,1.3253,0.9115,0,0,7.482,0,9.4389,1,1,1,1,0,0,0,0,0,0,0,0,1,0,0,1,Act-1
8.6207,1.8473,0.803,0,0,14.9743,0,16.9625,0,1,1,1,2,1,1,0,0,0,1,1,1,0,1,1,Act-1
7.8222,1.1477,0.5558,0,0,0,0,6.4585,0,1,1,0,0,0,0,0,0,0,0,0,1,0,0,0,Act-1
7.5429,1.4174,0.4958,0,0,11.7375,0,9.1552,0,1,1,1,0,0,0,0,0,0,0,0,1,1,0,1,Act1
7.8284,1.1494,0.7957,0,0,0,0,7.5094,0,1,1,1,0,0,0,0,0,0,0,0,0,0,0,0,Act1
7.7448,1.2546,0.9836,0,0,8.9087,0,8.9212,0,1,1,1,0,0,0,0,0,0,0,0,0,0,0,1,Act1
7.3922,1.5496,0.8928,0,0,21.1677,0,15.8071,0,1,0,1,0,0,0,0,0,0,0,1,0,1,1,1,Act1
8.8065,1.3315,0.81,0,0,7.8671,0,5.7612,1,1,1,1,0,0,0,0,1,0,0,1,1,1,0,1,Act-1
7.4722,1.2569,0.7648,0,0,12.537,0,12.3694,1,1,1,1,0,1,1,0,0,1,0,0,1,1,0,1,Act1
7.7376,1.4443,0.9991,0,0,12.4207,1,14.2818,1,1,1,1,1,0,0,0,0,1,0,1,1,1,0,1,Act1
8.1184,1.3526,1.1559,0,0,7.5229,0,7.6095,0,1,0,1,1,0,0,0,0,1,0,0,0,1,1,1,Act-1
8.2402,1.3261,0.9901,0,0,7.3703,0,6.9158,0,1,1,1,1,0,0,0,0,1,0,0,0,0,1,1,Act-1
8.2063,1.2506,0.9649,1,0,8.0045,0,12.1728,1,1,1,1,3,2,2,1,0,0,0,0,0,1,0,1,Act-1
7.8426,1.2527,0,0,0,3.5363,0,5.4778,0,1,0,0,0,0,0,0,0,0,0,0,0,0,0,0,Act-1
7.4367,1.1471,0.8079,0,0,3.9227,0,8.7329,0,1,1,1,0,0,0,0,0,0,0,0,0,0,0,0,Act-1
8.0185,1.5263,0.8648,0,0,10.3693,0,6.6816,0,1,1,1,0,0,0,0,0,0,0,0,0,0,0,1,Act-1
7.9872,1.4262,0,0,0,8.8022,0,5.2454,0,1,0,0,0,0,0,0,0,0,0,0,0,0,0,1,Act1
7.9778,1.2734,0,0,0,3.2963,0,3.7413,0,0,0,0,0,0,0,0,0,0,0,0,0,0,0,0,Act1
7.3592,1.1666,0.8064,0,0,3.6848,0,15.5803,0,1,1,1,0,0,0,0,0,0,0,0,0,0,0,0,Act1
7.6875,1.25,0,0,0,5.5405,0,3.9426,0,0,0,0,0,0,0,0,0,0,0,0,0,0,0,0,Act1
8.0679,1.2842,0,0,0,4.865,0,3.4389,0,0,0,0,0,0,0,0,0,0,0,0,0,0,0,0,Act-1
7.7792,1.1656,0.878,0,0,8.9314,0,8.6962,0,1,1,1,0,0,0,0,0,0,0,0,0,0,0,0,Act-1
7.8114,1.1844,1.3066,0,0,6.5146,0,8.337,0,1,1,1,0,0,0,0,0,0,0,0,0,0,0,0,Act-1
7.4683,1.3482,0.8374,0,0,8.8598,0,8.8573,0,1,1,1,0,0,0,0,0,0,0,0,1,0,0,1,Act-1
7.7861,1.2893,0.6765,0,0,12.892,0,12.4017,0,1,1,1,0,0,0,0,0,0,0,0,0,0,0,1,Act1
7.7417,1.2995,0.7514,0,0,5.3715,0,8.5809,1,1,1,1,0,0,0,0,0,0,0,0,0,1,0,1,Act1
8.1044,1.3932,1.3306,0,0,6.4493,0,10.9272,1,1,1,1,0,0,0,0,0,0,0,0,0,1,0,1,Act-1
7.3636,1.3519,0.9847,0,0,10.5802,0,7.0392,0,1,0,1,0,0,0,0,0,1,0,1,1,1,0,1,Act-1
7.3788,1.3519,0.9486,0,0,10.5566,0,7.0392,0,1,0,1,0,0,0,0,0,1,0,0,1,1,0,1,Act-1
8.1726,1.1018,0.8255,0,0,0,0,6.944,0,1,1,1,0,0,0,0,0,0,0,0,0,0,0,0,Act-1
8.3563,1.1982,0.791,0,0,4.2883,0,13.2127,0,1,1,1,0,0,0,0,0,0,1,1,0,0,0,0,Act-1
7.8137,1.392,1.8004,0,0,3.9988,0,5.8793,0,1,1,0,0,0,0,0,0,0,0,0,0,0,0,1,Act-1
8.14,1.3413,0.9405,0,0,11.776,1,9.6174,0,1,1,1,0,0,0,0,0,0,0,0,0,0,1,1,Act-1
8.569,1.2974,0.8857,0,0,3.3951,0,2.96,1,1,1,1,0,0,0,0,1,1,1,1,0,1,0,0,Act-1
8.3457,1.3017,1.0333,0,0,3.5303,0,2.96,1,1,1,1,0,0,0,0,1,1,0,0,0,1,0,0,Act-1
8.4675,1.4143,1.0186,0,1,5.5667,1,2.96,1,1,1,1,0,0,0,0,1,1,1,1,1,1,1,1,Act-1
7.5263,1.5127,1.1424,0,0,10.4141,0,6.7309,0,1,0,1,1,0,0,0,0,0,0,1,0,0,1,1,Act1
7.7115,1.3615,1.0529,1,0,14.158,0,9.6796,1,1,1,1,0,0,0,0,0,0,0,0,0,0,0,1,Act1
7.5263,1.2594,1.0849,0,0,8.4323,0,8.0114,0,1,1,1,0,0,0,0,0,0,0,0,0,0,0,0,Act1
7.5397,1.4482,0.9855,0,0,18.4253,0,10.2165,0,1,0,1,2,0,0,0,0,0,0,0,1,0,0,1,Act1
8.0376,1.4013,0.8858,0,0,16.1615,0,9.1097,0,1,1,1,0,0,0,0,0,0,0,0,1,0,0,1,Act-1
8.2778,1.2789,0,0,0,3.2631,0,2.7495,0,0,0,0,0,0,0,1,0,0,0,0,0,0,0,0,Act1
8.6136,1.2809,0,0,0,5.9876,0,2.96,0,0,0,0,0,0,0,0,0,0,1,1,0,0,0,0,Act-1
7.7857,1.3463,0.7073,0,0,9.6113,0,6.4347,0,1,0,0,0,0,0,0,0,0,0,0,1,0,0,0,Act-1
8.5256,1.2795,0.0001,0,0,4.7494,0,3.5683,0,1,1,0,0,0,0,0,0,0,0,1,0,0,0,0,Act-1
7.5185,1.1869,1.1717,0,0,7.927,0,9.8643,0,1,1,1,0,0,0,0,0,0,0,0,0,0,0,0,Act1
8.5333,1.3807,1.1525,0,0,8.6036,0,6.2371,1,1,1,1,0,0,0,0,0,0,0,0,0,0,0,1,Act1
8.1579,1.3394,0.9192,0,0,10.5559,0,7.8454,0,1,1,1,0,0,0,0,0,0,0,1,0,0,0,1,Act-1
7.8701,1.4045,1.0715,0,0,18.642,0,13.7916,0,1,1,1,0,0,0,0,0,0,0,0,0,0,0,1,Act-1
7.7941,1.5329,0.9712,0,0,24.123,0,14.8343,0,1,1,1,0,0,0,0,0,0,0,0,0,1,1,1,Act1
7.6667,1.1788,1.1279,0,0,7.1076,0,8.5793,0,1,0,1,0,0,0,0,0,0,0,0,0,0,1,0,Act1
7.3444,1.4068,0,0,0,11.2547,0,5.6697,0,1,0,0,0,0,0,0,0,0,0,0,0,0,0,1,Act-1
7.9493,1.1692,0.9597,1,0,7.8826,0,9.0047,0,1,1,1,0,0,0,0,0,0,0,0,0,0,0,0,Act-1
7.8494,1.2669,0.9323,0,0,13.8554,0,13.3272,1,1,1,1,0,0,0,0,0,0,0,0,1,0,0,1,Act1
8.5449,1.4552,1.213,0,0,13.0575,1,8.3081,0,1,1,1,0,0,0,0,0,0,0,0,1,1,1,1,Act1
7.9456,1.5197,1.0531,0,0,15.7307,0,8.1184,0,1,1,1,0,0,0,0,0,0,0,0,1,1,0,1,Act-1
7.6476,1.485,0.9074,0,0,11.5797,0,12.1643,0,1,1,1,0,1,1,0,0,1,0,0,1,1,0,1,Act1
7.7794,1.4029,1.1438,0,0,19.4014,0,13.3642,1,1,1,1,1,0,0,0,0,0,0,0,0,0,0,1,Act-1
8.152,1.4044,1.25,0,0,9.9075,0,7.1882,0,1,1,1,0,0,0,0,0,0,0,1,0,0,0,1,Act1
7.7608,1.2044,1.1734,0,0,5.5883,0,6.5135,0,1,1,1,0,0,0,0,0,0,0,0,0,0,0,0,Act1
7.5946,1.5247,1.0501,0,0,24.5316,0,13.0096,0,1,1,1,0,0,0,0,0,0,0,0,1,1,0,1,Act1
8.2389,1.3952,0.9926,1,0,9.6641,0,7.8964,1,1,1,1,0,0,0,0,0,0,0,0,0,0,0,1,Act-1
7.4861,1.2908,1.2174,0,0,16.463,0,8.8902,0,1,1,1,0,0,0,0,0,0,0,0,0,0,0,1,Act1
7.9167,1.2969,0,0,0,7.0926,0,2.96,0,0,0,0,0,0,0,0,0,0,0,0,0,0,0,0,Act1
8.5764,1.2949,0,0,0,4.3358,0,3.4161,0,0,0,0,0,0,0,0,0,0,1,1,0,0,0,0,Act-1
8.0198,1.184,1.0874,0,0,6.3574,0,7.4086,1,1,1,1,1,0,0,0,1,0,0,0,0,0,0,0,Act1
7.3413,1.3613,1.1279,0,0,15.4602,0,7.8385,0,1,0,1,1,0,0,0,0,0,0,0,1,0,0,1,Act1
7.8161,1.5152,1.3763,0,0,12.4456,0,9.8671,1,1,1,1,2,0,0,0,0,1,0,0,0,1,0,1,Act1
8.0875,1.2893,0.9863,0,0,9.3902,0,7.0568,0,1,0,1,1,0,0,0,0,0,0,0,0,0,0,1,Act1
8.4881,1.259,0.0001,0,0,4.8864,0,3.4389,0,0,1,0,0,0,0,0,1,0,0,1,0,1,0,0,Act-1
7.1535,1.1668,0.3964,0,0,7.2569,0,5.9203,0,1,0,1,0,0,0,0,0,0,0,0,0,0,0,0,Act-1
8.0789,1.093,0,0,0,0,0,5.3979,0,1,1,0,0,0,0,0,0,0,0,0,0,0,0,0,Act1
8.0159,1.4148,0,0,0,5.1621,0,5.2718,0,1,0,0,0,0,0,0,0,0,0,0,0,0,0,1,Act-1
7.8718,1.3463,1.3038,0,0,9.6251,0,8.0193,1,1,1,1,0,0,0,0,0,0,0,0,0,0,0,1,Act1
8.1538,1.232,0.8449,1,0,1.183,0,6.5447,0,1,1,1,0,0,0,0,0,0,0,0,1,1,0,0,Act-1
7.825,1.5025,0.6415,0,0,11.0847,0,5.3973,0,1,1,1,0,0,0,0,0,0,0,0,0,1,1,1,Act-1
7.4667,1.3447,0.5315,0,1,10.0836,0,4.3908,0,1,0,0,0,0,0,0,0,0,0,0,0,0,0,1,Act1
7.6812,1.3077,0.6073,0,0,13.7147,0,9.1745,0,1,1,1,0,1,1,0,0,0,0,0,0,0,1,1,Act1
7.8929,1.2565,0.2368,0,0,5.8887,0,6.1417,0,1,0,0,0,0,0,0,0,0,0,0,0,0,1,0,Act-1
8.3635,1.3707,1.0061,0,0,7.4129,0,9.1075,0,1,1,1,0,0,0,0,0,0,0,0,0,0,1,1,Act-1
7.5833,1.2016,1.3352,0,0,6.0907,0,7.9321,0,1,0,1,0,0,0,0,0,0,0,0,0,0,0,0,Act-1
7.4958,1.175,1.2673,0,0,6.1442,0,8.1547,0,1,0,1,0,0,0,0,0,0,0,0,0,1,0,0,Act-1
7.7717,1.2219,0.9148,0,0,25.2734,0,14.7004,1,1,1,1,0,0,0,0,1,0,0,0,0,1,0,1,Act1
8.2421,1.1852,0.9131,0,0,5.1286,0,7.017,0,1,0,1,0,0,0,0,0,0,0,0,0,0,0,0,Act-1
7.4762,1.3608,0.6199,0,1,10.0763,0,3.7404,0,1,0,0,0,0,0,0,0,0,0,0,0,0,0,1,Act1
7.4028,1.295,0.861,0,0,28.0089,0,12.2018,0,1,0,1,0,0,0,0,0,0,0,0,0,0,0,1,Act-1
7.4841,1.321,1.0599,0,0,14.5246,0,8.8734,0,1,0,1,0,0,0,0,0,0,0,0,0,0,0,1,Act-1
7.553,1.4745,1.0142,0,0,22.3492,0,9.9571,0,1,0,1,0,0,0,0,0,0,0,0,0,0,0,1,Act1
8.0868,1.3855,1.4396,0,0,11.7209,0,9.2155,0,1,1,1,3,0,0,0,1,0,0,0,0,1,0,1,Act1
7.9167,1.2975,0,0,0,7.1502,0,3.4389,0,0,0,0,0,0,0,0,0,0,0,0,0,0,0,0,Act1
8,1.1971,0.9197,0,0,2.6864,0,7.6053,0,1,1,1,0,0,0,0,0,0,0,0,0,0,0,0,Act1
8.2361,1.2839,0,0,0,5.2844,0,3.5446,0,0,0,0,0,0,0,0,0,0,0,0,0,0,0,0,Act-1
7.8438,1.2277,0.8891,0,0,6.0204,0,6.3775,0,1,1,1,0,0,0,0,0,0,0,0,0,0,0,0,Act-1
7.6724,1.7375,1.107,0,0,24.7592,0,12.2568,0,1,1,1,0,0,0,0,0,0,0,0,0,0,0,1,Act-1
8.2767,1.3654,1.0413,0,0,11.9875,0,8.2127,1,1,1,1,0,0,0,0,0,0,1,1,0,1,0,1,Act1
7.8472,1.4055,1.1404,0,0,17.9341,0,13.0187,0,1,1,1,0,0,0,0,0,0,0,0,0,0,0,1,Act-1
8.3476,1.3794,0.827,0,0,12.2494,0,10.4743,1,1,1,1,0,0,0,0,0,1,0,0,1,0,0,1,Act-1
7.951,1.2647,1.1951,0,0,10.847,0,6.6905,1,1,1,1,0,0,0,0,0,0,0,0,0,0,0,1,Act1
8.147,1.3406,1.1933,0,0,10.1138,0,8.8782,0,1,1,1,0,0,0,0,0,1,0,0,1,1,1,1,Act1
8.0317,1.407,0.9247,0,0,12.1653,0,8.2422,1,1,0,1,0,0,0,0,0,1,0,0,1,1,1,1,Act1
7.3194,1.2629,1.0892,0,0,8.7094,0,9.9028,0,1,0,1,0,0,0,0,0,1,0,0,1,1,0,1,Act1
7.9167,1.2995,0,0,0,7.252,0,3.5446,0,0,0,0,0,0,0,0,0,0,0,0,0,0,0,0,Act-1
7.4872,1.1661,1.002,0,0,7.4044,0,13.9431,0,1,1,1,0,0,0,0,0,0,0,0,0,0,0,0,Act1
7.5877,1.1726,0.9618,0,0,9.1772,0,10.1126,0,1,1,1,0,0,0,0,0,0,0,0,0,0,0,0,Act-1
7.5533,1.4228,1.1229,0,1,16.0195,0,10.7177,1,1,1,1,0,0,0,0,0,0,0,0,1,0,0,1,Act1
7.8819,1.3523,0.9027,0,0,18.9902,0,13.0506,0,1,1,1,1,0,0,0,0,0,0,0,1,1,0,1,Act1
7.9902,1.3865,0.9063,0,0,0,0,4.7451,1,1,0,0,0,0,0,0,0,1,0,1,1,1,0,0,Act-1
7.7917,1.2995,0,0,0,5.4825,0,2.7495,0,0,0,0,0,0,0,0,0,1,0,0,0,0,1,0,Act-1
7.4815,1.3087,0.965,0,0,14.1579,0,12.1108,0,1,1,1,1,0,0,0,0,1,0,0,1,0,0,1,Act1
7.9705,1.3274,0.9707,0,0,11.8078,0,15.3869,1,1,1,1,0,1,1,0,0,0,0,0,0,0,0,1,Act1
7.9531,1.2432,1.1323,0,0,9.7943,0,11.9977,1,1,1,1,0,1,1,0,0,0,0,0,0,0,0,1,Act1
8.1713,1.358,0.9347,0,0,9.058,0,4.7785,0,1,0,1,2,0,0,0,0,0,0,0,0,1,1,1,Act1
7.3889,1.3032,1.5984,0,0,4.2759,0,6.2477,0,1,0,1,0,0,0,0,0,1,0,0,0,1,0,0,Act-1
7.62,1.2491,0.5714,1,0,8.6715,0,8.792,0,1,1,1,0,0,0,0,0,0,0,0,0,0,0,1,Act1
8.4474,1.1358,0.8887,0,0,0,1,3,1,1,1,0,0,0,0,0,1,0,0,1,1,1,0,0,Act-1
8.3229,1.1459,0.8271,0,0,0,0,3.7798,1,1,1,0,0,0,0,0,1,0,0,0,1,1,0,0,Act-1
8.4,1.3324,1.058,1,0,5.1866,0,7.6782,0,1,1,1,0,0,0,0,0,0,0,0,1,1,0,1,Act-1
7.6944,1.2658,0,0,0,3.625,0,1,0,0,0,0,0,0,0,0,0,0,0,0,0,1,0,0,Act1
8.0242,1.2955,0.98,0,0,9.1466,0,9.7671,0,1,1,1,1,0,0,0,1,0,0,0,0,1,0,1,Act-1
7.6988,1.3474,0.9267,0,0,9.1687,0,5.4507,0,1,0,1,0,0,0,0,0,0,0,0,0,1,0,1,Act-1
8.279,1.3592,0.929,0,0,7.3914,0,7.7082,1,1,1,1,0,0,0,0,0,0,0,1,0,0,0,1,Act-1
8.2355,1.3482,0.9647,0,0,7.5773,0,7.7082,1,1,1,1,0,0,0,0,0,0,0,1,0,0,0,1,Act-1
7.4204,1.4744,0.6769,0,0,18.7429,0,11.5882,0,1,0,1,0,0,0,0,0,0,0,0,1,1,0,1,Act1
7.7836,1.2899,0.6764,0,0,12.9854,0,7.447,0,1,1,1,0,0,0,0,0,0,0,0,1,1,0,1,Act1
8.0606,1.3543,0.9333,0,0,5.2018,0,9.0831,0,1,1,1,0,0,0,0,0,0,0,0,1,0,0,1,Act1
8.1196,1.3351,1.1322,0,0,3.823,1,7.0922,0,1,1,1,0,0,0,0,0,0,0,0,1,0,1,1,Act1
8.1083,1.3462,0.9776,0,0,5.8963,0,6.0887,0,1,0,1,2,0,0,0,0,0,0,0,0,1,1,1,Act-1
7.6842,1.621,1.001,0,1,32.3447,0,16.1158,0,1,1,1,0,0,0,0,0,1,0,0,1,1,0,1,Act-1
8.2604,1.3466,1.1442,2,0,8.7702,0,10.3235,1,1,1,1,1,0,0,0,0,1,0,0,0,1,0,1,Act-1
7.6944,1.3398,0.8835,0,0,4.6445,0,13.2566,1,1,1,1,0,0,0,0,0,1,0,1,1,1,0,1,Act-1
7.8226,1.3364,0.8768,0,0,4.5805,0,13.3188,1,1,1,1,0,0,0,0,0,1,0,0,1,1,0,1,Act1
8.5128,1.2464,0,0,1,1.1922,0,1,1,0,0,0,0,0,0,0,0,1,0,0,0,1,0,0,Act-1
8.2583,1.3417,0.9975,0,1,9.7567,0,5.6502,1,1,1,1,0,0,0,0,0,1,0,0,0,1,0,1,Act-1
8.321,1.2295,1.1556,0,0,1.5121,1,3,0,1,1,1,0,0,0,0,1,1,0,0,0,1,1,0,Act-1
8.3889,1.2563,0,0,0,1.445,0,3,1,0,0,0,0,0,0,0,0,0,0,0,0,0,0,0,Act-1
8.5981,1.2466,1.0123,0,0,1.4167,0,3.7798,0,0,1,0,0,0,0,0,0,0,1,0,0,0,0,0,Act-1
8.6233,1.2438,0.7866,0,0,1.368,3,3,1,0,1,0,0,0,0,0,0,0,1,0,0,0,1,0,Act1
8.0417,1.3376,1.1376,0,0,3.3186,0,8.6152,1,1,1,1,0,1,1,0,0,0,0,0,0,0,0,1,Act-1
7.8167,1.2316,0.875,0,0,1.7595,0,5.7737,1,1,0,0,0,0,0,0,0,1,0,0,0,1,0,0,Act-1
7.8452,1.2387,1.365,0,0,1.7502,0,5.9528,1,1,0,0,0,0,0,0,0,1,0,0,0,1,0,0,Act-1
7.7049,1.3147,0.9766,0,1,23.2418,1,7.8995,1,1,1,1,0,0,0,0,0,1,0,0,0,0,1,1,Act-1
8.3411,1.2945,1.0857,0,0,5.3883,0,9.0533,1,1,1,1,0,1,1,0,0,1,0,1,0,1,0,1,Act-1
7.7275,1.1744,0.8847,0,0,10.0956,0,13.9746,0,1,1,1,0,0,0,0,0,1,0,0,1,1,0,1,Act1
8.1494,1.2211,1.064,1,0,1.2902,0,3.5961,1,1,1,1,2,1,1,1,0,0,0,0,0,1,0,1,Act-1
7.6595,1.4122,1.1802,0,0,9.8925,0,8.4627,0,1,1,1,0,2,2,0,0,1,0,0,1,1,0,1,Act1
7.4641,1.5038,1.0399,0,0,19.3294,0,14.5195,0,1,0,1,0,0,0,0,0,1,0,0,1,1,0,1,Act1
8.3093,1.2509,0,0,0,3.2374,0,5.1537,0,0,0,0,0,0,0,0,0,0,0,0,0,0,0,0,Act-1
8.1905,1.2498,0,0,0,0,0,0,0,0,0,0,0,0,0,0,0,1,0,0,0,1,1,0,Act-1
8.3085,1.2121,1.1815,1,0,0,0,10.0707,1,1,1,1,1,3,3,1,0,1,0,0,1,1,1,0,Act-1
7.8851,1.4165,0.8768,0,0,17.0769,0,13.3611,0,1,1,1,0,0,0,0,0,0,0,0,1,0,0,1,Act1
8.4767,1.2562,1.1004,0,0,5.2358,0,9.9303,0,1,1,1,0,0,0,0,0,0,0,0,1,0,0,1,Act-1
8.2102,1.2916,0.8764,0,0,4.8825,0,8.8031,1,1,1,1,1,0,0,1,0,0,0,1,1,1,0,1,Act-1
8.3398,1.2916,0.9107,0,0,4.0517,0,9.0183,1,1,1,1,1,0,0,1,0,0,0,1,1,1,0,1,Act-1
8.1339,1.2805,0.8913,0,0,9.1212,0,10.5984,1,1,1,1,1,0,0,1,0,0,0,1,1,1,0,1,Act1
8.0189,1.4922,1.055,0,0,16.0195,0,7.353,0,1,1,1,0,0,0,0,0,0,0,0,1,0,1,1,Act1
8.1734,1.2872,0.8838,0,0,6.9069,0,10.3801,1,1,1,1,1,0,0,1,0,0,0,1,1,1,0,1,Act-1
8.7412,1.3173,0.915,0,0,5.4108,0,7.2158,0,1,1,1,0,0,0,0,0,0,0,0,0,1,0,1,Act1
7.5795,1.2935,0.883,0,0,20.3994,0,6.8365,1,1,0,1,0,0,0,0,0,0,0,0,0,0,0,1,Act1
8.1042,1.3389,0.991,0,0,7.1391,0,7.0459,1,1,1,1,2,0,0,0,0,0,0,0,1,1,0,1,Act1
8.641,1.2693,0.3331,0,0,2.033,0,4.3528,0,1,1,0,0,0,0,0,0,0,0,0,0,0,0,0,Act1
8.1818,1.2809,0.3232,0,0,6.2858,0,4.782,0,1,1,0,0,0,0,0,0,0,0,0,0,0,0,0,Act-1
7.5208,1.3485,1.2183,0,0,14.6878,0,8.7612,1,1,1,1,1,0,0,0,0,0,0,1,0,1,0,1,Act-1
7.5347,1.3485,1.1913,0,0,14.6504,0,8.7612,1,1,1,1,1,0,0,0,0,0,0,0,0,1,0,1,Act-1
8.0417,1.4653,0.9746,0,0,15.8771,2,10.832,0,1,1,1,0,0,0,0,0,0,0,1,1,0,0,1,Act1
7.8953,1.453,0.8843,0,0,14.108,0,9.1026,0,1,1,1,0,0,0,0,0,0,0,0,0,0,0,1,Act1
8.1733,1.4393,0.8782,0,0,11.3324,0,9.3351,1,1,1,1,1,0,0,0,0,0,0,0,0,1,0,1,Act1
7.6019,1.2068,0.714,0,0,6.3625,0,8.4648,0,1,1,1,0,0,0,0,0,0,0,0,1,0,0,0,Act1
7.6033,1.2683,0.9835,0,0,20.4176,0,8.0889,0,1,1,1,0,0,0,0,0,0,0,0,0,0,0,1,Act-1
8.0251,1.1107,1.0512,0,0,0,0,19.2723,1,1,1,1,0,0,0,0,0,0,0,0,0,0,0,0,Act-1
8.2407,1.1006,0.7923,0,0,0,0,9.2865,0,1,1,1,0,0,0,0,0,0,0,0,0,0,0,0,Act-1
8.0816,1.1018,0.7545,0,0,0,0,9.2698,0,1,1,1,0,0,0,0,0,0,0,0,0,0,0,0,Act1
7.9926,1.1045,0.7816,0,0,0,0,9.8376,0,1,1,1,0,0,0,0,0,0,0,0,0,0,0,0,Act1
7.9823,1.0649,0.8692,0,0,0,0,9.9021,0,1,1,1,0,0,0,0,0,0,0,0,0,0,0,0,Act-1
8.0455,1.1004,0.6915,0,0,0,0,8.941,0,1,1,1,0,0,0,0,0,0,0,0,0,0,0,0,Act1
8.3284,1.0992,0.889,0,0,0,0,9.1705,0,1,1,1,0,0,0,0,0,0,0,0,0,0,0,0,Act-1
7.901,1.106,0.9052,0,0,9.977,0,14.384,0,1,1,1,0,0,0,0,0,0,0,1,1,0,0,0,Act1
7.9682,1.0116,1.0043,0,0,0,0,13.1893,1,1,1,1,0,0,0,0,0,0,0,0,0,0,0,0,Act1
7.5321,1.0196,0.6947,0,0,0,0,8.8537,0,1,1,1,0,0,0,0,0,0,0,0,0,0,0,0,Act1
7.5733,1.0635,0.7275,0,0,0,0,8.439,0,1,1,1,0,0,0,0,0,0,0,0,0,0,0,0,Act-1
7.6399,1.1673,0.9643,0,0,6.2293,0,10.8145,0,1,1,1,0,0,0,0,0,0,0,0,0,0,0,0,Act1
8.1157,1.1012,0.8253,0,0,0,0,11.2147,0,1,1,1,0,0,0,0,0,0,0,0,0,0,0,0,Act1
8.0054,1.1014,0.882,0,0,0,0,11.0738,0,1,1,1,0,0,0,0,0,0,0,0,0,0,0,0,Act1
8.25,1.2239,0.9352,0,0,9.1862,0,7.91,0,1,1,1,0,0,0,0,1,0,0,0,0,0,0,0,Act-1
8.1889,1.2411,0.6,0,0,9.3024,0,5.0401,0,1,1,0,0,0,0,0,1,0,0,0,0,0,1,0,Act-1
7.7778,1.5644,1.0109,0,0,13.5333,0,13.5914,1,1,1,1,2,2,2,0,0,1,0,0,0,1,0,1,Act1
7.7528,1.117,1.2254,0,0,0,0,10.2498,0,1,1,1,0,0,0,0,0,0,0,0,0,0,0,0,Act-1
7.308,1.1679,0.8672,0,0,9.3021,0,10.5229,0,1,1,1,0,0,0,0,0,0,0,0,0,0,0,0,Act1
7.5682,1.1739,0.8797,0,0,10.0008,0,9.6931,1,1,1,1,0,0,0,0,0,0,0,1,0,0,0,0,Act1
8.3385,1.0415,0.4615,0,0,0,0,3.5446,0,1,1,0,0,0,0,0,0,0,0,0,0,0,1,0,Act-1
8.4815,1.0419,0,1,0,0,0,2.7495,0,0,0,0,0,0,0,0,0,0,0,0,0,0,1,0,Act-1
8.165,1.0953,1.0681,2,1,11.0472,1,15.2343,1,1,1,1,1,14,14,0,0,0,0,0,0,1,1,1,Act-1
8.1889,1.1575,0.9829,2,1,17.3958,0,17.6644,1,1,1,1,0,7,7,0,0,0,0,0,0,1,1,1,Act-1
8.0159,1.0329,1.0097,0,0,0,0,11.9089,1,1,1,1,0,2,2,0,0,0,0,0,0,0,0,0,Act1
8.1602,1.0694,1.0437,0,0,4.7596,2,15.4729,1,1,1,1,0,9,9,0,0,1,0,0,0,0,1,0,Act-1
8.1549,1.0767,1.0655,0,0,8.5482,0,12.3916,1,1,1,1,0,11,11,0,0,0,0,0,0,1,1,0,Act-1
7.6844,1.4834,1.1092,0,0,17.3873,0,10.0146,0,1,1,1,0,0,0,0,0,0,0,0,1,0,0,1,Act1
7.6627,1.3753,1.0037,0,0,24.5898,0,14.9102,1,1,1,1,0,0,0,0,1,0,0,0,1,1,0,1,Act-1
7.8492,1.3857,0.9887,0,0,16.7416,0,8.8011,0,1,1,1,0,0,0,0,0,0,0,0,0,0,0,1,Act1
7.4683,1.3001,1.0196,0,0,10.3898,0,10.598,0,1,1,1,0,0,0,0,0,1,0,0,0,1,0,1,Act-1
8.0833,1.1814,0.9125,0,0,11.2556,0,15.3137,1,1,1,1,0,2,2,0,0,0,0,0,0,0,1,1,Act-1
7.7976,1.1944,0.9213,0,0,8.059,0,7.7466,1,1,1,1,0,0,0,0,0,0,0,0,0,0,0,0,Act-1
8.2609,1.0383,0.7119,1,0,0,2,5.8605,1,1,1,0,0,0,0,0,0,0,0,0,0,1,1,0,Act-1
7.5222,1.2747,1.0976,0,0,9.8843,0,9.3462,1,1,1,1,0,2,2,0,0,1,0,0,1,1,0,1,Act1
7.4905,1.3123,1.0678,0,0,15.9652,0,13.758,1,1,1,1,0,2,2,0,0,1,0,0,1,1,0,1,Act-1
7.536,1.3316,1.0824,0,0,19.3305,0,15.639,1,1,1,1,0,2,2,0,0,1,0,0,1,1,0,1,Act1
7.6262,1.3152,1.0779,0,0,14.9901,0,11.9935,1,1,1,1,1,2,2,0,0,1,0,0,1,1,0,1,Act1
7.9525,1.2357,0.79,1,0,2.0025,2,6.5961,0,1,1,0,0,0,0,0,0,0,0,0,0,0,1,0,Act-1
7.4815,1.3578,0.6383,0,0,20.9556,0,6.8516,0,1,0,1,0,0,0,0,0,0,0,0,0,0,1,1,Act-1
7.5067,1,0.8706,0,0,0,0,12.2949,0,1,1,1,0,0,0,0,0,0,0,0,0,1,1,0,Act-1
7.7589,1.2812,1.0425,0,0,13.2446,0,8.3836,1,1,1,1,0,0,0,0,0,0,0,0,0,0,0,1,Act1
8.0994,1.144,0.9532,1,0,9.0124,0,11.1001,1,1,1,1,1,0,0,1,0,0,0,0,0,0,0,0,Act-1
8.2401,1.3934,0.7963,0,0,18.0215,0,15.7727,0,1,1,1,0,0,0,0,0,0,0,1,0,0,0,1,Act1
7.8507,1.3804,1.0062,0,0,15.1165,0,11.3141,1,1,1,1,0,0,0,0,0,0,0,0,0,1,0,1,Act1
7.9671,1.0076,0.8736,0,0,0,0,9.8348,1,1,1,1,0,0,0,0,0,0,0,0,0,0,0,0,Act-1
8.037,1.0076,0.8756,0,0,0,0,9.9091,1,1,1,1,0,0,0,0,0,0,0,0,0,0,0,0,Act-1
8,1.0433,0.9543,0,0,0,0,7.3335,1,1,1,1,0,0,0,0,0,0,0,0,0,0,1,0,Act-1
7.7564,1.2801,0.9934,0,0,11.3687,0,12.7179,1,1,1,1,0,0,0,0,0,0,0,0,1,1,0,1,Act1
7.7622,1.2449,0.9281,0,0,12.6016,0,10.8219,1,1,1,1,0,0,0,1,1,0,0,0,0,0,0,1,Act1
7.8895,1.0869,1.0835,0,0,4.232,0,14.041,1,1,1,1,0,2,2,0,0,0,0,0,0,1,0,0,Act-1
8.2685,1.5265,1.0906,0,0,13.3787,0,14.2464,1,1,1,1,0,0,0,0,0,1,0,1,1,0,0,1,Act-1
8.1894,1.0635,0,0,0,0,0,2.8399,0,0,0,0,0,0,0,0,0,0,0,0,0,0,0,0,Act-1
8.3083,1.0722,0,0,0,0,0,2.8717,0,0,0,0,0,0,0,0,0,0,0,0,0,0,0,0,Act-1
8.3712,1.0641,0,0,0,0,0,3,0,0,0,0,0,0,0,0,0,0,0,0,0,0,0,0,Act-1
8.0245,1.2142,0.5761,0,0,7.3148,1,4.7387,0,1,1,0,0,0,0,0,0,0,0,0,1,0,1,0,Act-1
7.4755,1.1829,0.6965,0,0,7.8386,0,5.9187,0,1,1,0,0,0,0,0,0,0,0,0,1,0,0,0,Act-1
8.0156,1.2161,0.4446,0,0,9.164,0,5.0401,0,1,0,0,0,0,0,0,0,0,0,0,1,1,0,0,Act-1
8.4107,1.0703,0,0,0,0,0,3.5961,0,0,0,0,0,0,0,0,1,0,0,0,0,1,0,0,Act-1
8.2042,1.2231,3.3512,0,0,1.503,0,5.8007,0,1,0,0,0,0,0,0,0,0,0,0,0,0,0,0,Act-1
7.8019,1.2316,0,0,0,5.5898,0,5.7048,0,1,0,0,0,0,0,0,0,0,0,0,0,0,0,0,Act-1
7.971,1.2015,0.9073,0,0,4.9484,0,5.4881,0,1,1,1,0,0,0,0,0,0,0,0,0,0,0,0,Act-1
8.0038,1.221,0.7622,0,0,4.8476,0,8.5375,0,1,1,1,0,0,0,0,0,0,0,0,0,0,0,0,Act-1
8.2407,1.245,0.2132,0,0,4.5193,1,5.4881,0,1,1,0,0,0,0,0,0,0,0,0,0,0,1,0,Act-1
7.6964,1.2382,0,0,0,7.9863,0,5.4984,0,1,0,0,0,0,0,0,0,0,0,0,0,0,0,0,Act-1
7.4432,1.1836,1.0441,0,0,8.221,0,10.7002,0,1,1,1,0,0,0,0,0,0,0,1,0,0,0,0,Act-1
7.4618,1.2739,0.932,0,0,12.7145,0,10.6814,0,1,1,1,0,0,0,0,0,0,0,1,0,0,0,1,Act-1
7.7998,1.271,0.9523,0,0,10.1936,1,14.8867,0,1,1,1,0,0,0,0,1,0,0,1,1,1,0,1,Act-1
7.5682,1.2727,0.8424,0,0,16.2659,1,14.9302,0,1,1,1,0,0,0,0,1,0,0,1,1,1,0,1,Act-1
7.7518,1.27,0.8797,0,0,10.3112,1,13.8986,0,1,0,1,0,0,0,0,0,0,0,1,1,0,0,1,Act-1
7.6306,1.268,0.8301,0,0,13.1275,1,13.394,0,1,0,1,0,0,0,0,0,0,0,1,1,0,0,1,Act-1
7.5259,1.2692,0.9271,0,0,14.2815,1,14.3635,0,1,0,1,0,0,0,0,0,0,0,1,1,0,0,1,Act-1
7.5713,1.2692,0.926,0,0,13.8718,1,14.3635,0,1,0,1,0,0,0,0,0,0,0,1,1,0,0,1,Act-1
7.6692,1.2738,0.9299,0,0,10.8289,2,12.3762,0,1,1,1,0,0,0,0,0,0,0,1,1,0,0,1,Act-1
7.4741,1.2675,0.8548,0,0,14.3507,1,13.2827,0,1,0,1,0,0,0,0,0,1,0,1,1,0,0,1,Act-1
7.5469,1.2675,0.9159,0,0,13.7164,1,13.6311,0,1,0,1,0,0,0,0,0,1,0,1,1,0,0,1,Act-1
7.5009,1.3142,0.8734,0,0,16.3985,0,15.5653,0,1,1,1,0,0,0,0,0,0,0,1,1,0,0,1,Act-1
7.4684,1.266,0.8406,0,0,16.2231,0,14.0654,0,1,1,1,0,0,0,0,0,1,0,1,1,0,0,1,Act-1
7.4528,1.2618,0.9615,0,0,16.2504,0,14.9435,0,1,1,1,0,1,1,0,0,1,0,1,1,0,0,1,Act-1
7.5144,1.2674,0.9583,0,0,13.7601,0,9.9097,0,1,0,1,0,0,0,0,0,0,0,0,1,1,0,1,Act-1
7.8088,1.2193,0.6394,0,0,7.9172,0,6.0957,0,1,1,1,0,0,0,0,0,0,0,0,0,0,0,0,Act-1
7.983,1.422,0.9803,0,0,12.515,0,12.1522,1,1,1,1,0,1,1,0,0,0,0,0,1,1,0,1,Act1
8.0221,1.2104,0.8965,0,0,6.1447,0,13.4691,0,1,1,1,1,0,0,0,1,0,0,0,0,0,0,0,Act-1
7.9328,1.2885,0.9815,0,0,5.0251,0,12.8065,1,1,1,1,0,0,0,0,0,0,0,1,0,0,0,1,Act1
8.0313,1.3999,1.0441,0,0,11.5704,0,13.8746,1,1,1,1,0,0,0,0,0,0,0,1,0,0,0,1,Act-1
8.1288,1.4238,1.0109,0,0,10.7441,1,13.324,1,1,1,1,0,0,0,0,0,0,0,1,0,0,0,1,Act1
8.1288,1.4275,1.0415,0,0,10.8238,0,13.324,1,1,1,1,0,0,0,0,0,0,0,1,0,0,0,1,Act1
8.1288,1.4384,1.1172,0,0,10.9391,0,13.324,1,1,1,1,0,1,1,0,0,0,0,1,0,1,0,1,Act1
7.5926,1.5138,0.9225,0,1,14.0545,0,13.0991,1,1,1,1,0,0,0,0,0,1,0,0,0,1,0,1,Act1
7.8864,1.458,0.9417,0,0,10.737,0,8.2715,0,1,1,1,0,0,0,0,0,0,0,0,0,0,0,1,Act1
7.8291,1.458,1.0717,0,0,10.9908,0,8.2715,0,1,1,1,0,0,0,0,0,0,0,0,0,0,0,1,Act1
7.8397,1.4174,1.0236,0,0,8.6693,0,10.7588,1,1,1,1,0,0,0,0,0,1,0,0,1,1,0,1,Act-1
7.6988,1.3495,1.0419,0,0,12.3227,0,13.538,1,1,1,1,0,1,1,0,0,0,0,0,1,1,0,1,Act1
7.9077,1.2966,0.8167,0,0,21.7796,0,10.149,1,1,1,1,1,0,0,0,0,0,0,0,0,0,0,1,Act1
7.7381,1.4137,0.9838,0,0,15.1606,0,10.6051,0,1,1,1,0,0,0,0,0,0,0,0,1,1,0,1,Act1
7.5517,1.4476,1.0374,0,0,15.9311,0,12.4217,1,1,1,1,3,0,0,0,0,1,0,0,1,0,0,1,Act1
7.7265,1.4259,0.9565,0,0,24.5333,0,15.3311,1,1,1,1,0,0,0,0,0,1,0,0,1,1,0,1,Act1
7.5606,1.4697,0.8056,0,1,16.5542,0,9.6187,0,1,0,1,0,0,0,0,0,1,0,0,1,1,1,1,Act1
7.5741,1.3945,0.7075,0,0,16.757,0,11.5261,1,1,1,1,1,0,0,0,0,1,0,0,1,1,0,1,Act1
7.6619,1.3713,1.0051,0,0,25.8688,0,13.1221,1,1,1,1,0,0,0,0,0,0,0,0,0,0,0,1,Act1
7.7667,1.457,0.9123,0,0,14.6483,0,9.547,1,1,1,1,0,0,0,0,0,1,0,0,0,1,0,1,Act1
7.6131,1.3744,1.0868,0,0,15.7712,0,15.8144,1,1,1,1,0,0,0,0,0,0,0,0,1,0,0,1,Act1
7.9245,1.545,0.8983,0,0,22.2663,0,15.9838,1,1,1,1,0,0,0,0,0,0,0,0,1,1,0,1,Act1
7.7452,1.3864,0.7533,0,0,7.458,0,10.2671,1,1,1,1,0,0,0,0,1,0,0,0,1,1,0,1,Act1
7.6458,1.3866,1.05,0,0,7.4282,0,11.524,1,1,1,1,2,0,0,0,0,1,0,0,0,1,0,1,Act1
7.6004,1.3841,0.9623,0,0,11.7522,0,11.2123,1,1,1,1,1,0,0,0,0,0,0,0,0,0,0,1,Act1
7.6506,1.3983,0.9933,0,0,11.9977,0,9.0517,1,1,1,1,1,0,0,0,0,0,0,0,0,0,0,1,Act1
8.1312,1.2899,0.932,0,0,3.3196,0,5.5516,1,1,1,1,0,0,0,0,0,0,0,0,0,0,0,0,Act-1
7.8106,1.1847,0.8938,0,0,5.9909,1,7.8003,1,1,1,1,0,0,0,0,0,0,0,1,0,1,0,0,Act-1
7.6369,1.4019,1.0524,0,0,9.7425,0,6.9926,1,1,1,1,0,0,0,0,0,0,0,0,1,0,0,1,Act1
7.5333,1.1569,0.7965,0,0,0,0,5.4855,0,1,1,1,0,0,0,0,0,0,0,0,0,0,0,0,Act1
7.6369,1.4019,1.0524,0,0,9.7425,0,6.9926,1,1,1,1,0,0,0,0,0,0,0,0,1,0,0,1,Act1
7.7578,1.319,1.0412,0,0,5.4843,0,17.6176,1,1,1,1,0,1,1,0,0,0,0,0,1,1,0,1,Act1
7.7879,1.2869,0,0,0,5.4694,0,4.7451,0,0,0,0,0,0,0,0,0,0,0,0,0,0,1,0,Act-1
7.7471,1.353,0.7747,0,0,7.9442,0,11.78,1,1,1,1,0,0,0,0,0,0,0,0,0,0,0,1,Act-1
7.5625,1.384,1.027,0,0,10.0248,0,9.399,0,1,1,1,0,0,0,0,0,0,0,0,1,1,0,1,Act1
7.5556,1.4471,0.9485,0,0,10.0769,0,8.4627,0,1,0,1,0,0,0,0,0,1,0,0,1,1,0,1,Act1
7.4912,1.1862,1.1375,0,0,8.1006,0,10.4749,0,1,1,1,0,0,0,0,0,0,0,0,0,0,0,0,Act1
7.8267,1.3291,0.7897,0,0,13.6876,0,12.9056,0,1,1,1,0,0,0,0,0,0,0,0,0,0,0,1,Act-1
8.7826,1.3753,1.1625,1,0,4.7024,0,7.3659,1,1,1,1,0,0,0,0,0,0,0,0,0,0,0,1,Act1
8.3261,1.2237,0.906,2,0,5.7605,0,5.2847,0,1,1,1,0,0,0,0,0,0,0,0,0,0,0,0,Act-1
7.7738,1.3152,0.9677,1,0,6.3213,0,7.1602,1,1,1,1,0,0,0,0,0,0,0,0,0,0,0,1,Act-1
8.3997,1.2458,0.9123,0,0,2.5826,0,6.6787,0,1,1,0,0,0,0,0,0,1,0,0,0,1,1,0,Act-1
7.8301,1.3906,0.6652,0,0,7.4144,0,6.4071,0,1,0,0,0,0,0,0,0,1,0,0,1,1,1,1,Act1
8.576,1.2524,0.8675,0,0,2.2003,0,6.5975,0,1,1,0,1,0,0,0,0,1,0,0,0,1,1,0,Act-1
7.9792,1.219,1.0437,0,0,4.9295,0,12.2063,1,1,1,1,0,1,1,0,0,0,0,0,0,0,0,0,Act1
7.7984,1.062,0.9261,0,0,0,0,10.2023,0,1,1,1,0,0,0,0,0,0,0,0,0,0,0,0,Act1
8.0892,1.1066,0.9304,0,0,0,0,10.189,0,1,1,1,0,0,0,0,0,0,0,0,0,0,0,0,Act1
7.9274,1.062,0.9098,0,0,0,0,9.7628,0,1,1,1,0,0,0,0,0,0,0,0,0,0,0,0,Act-1
7.9262,1.0625,0.9813,0,0,0,0,11.5399,0,1,1,1,0,0,0,0,0,0,0,0,0,0,0,0,Act-1
8.2824,1.1016,0.8622,0,0,0,0,10.7446,0,1,1,1,0,0,0,0,0,0,0,0,0,0,0,0,Act1
8.4935,1.0385,0.5679,0,0,0,0,4.888,0,1,1,1,0,0,0,0,0,0,1,0,0,0,0,0,Act-1
8.1241,1.2768,0.9963,0,0,4.938,0,11.8347,0,1,1,1,0,0,0,0,0,0,0,0,1,0,0,0,Act1
8.1343,1.036,1.2611,0,0,0,0,7.3031,0,1,1,1,0,0,0,0,0,0,0,0,0,0,1,0,Act1
8.0469,1.0636,0.59,0,0,0,0,5.1469,0,1,0,0,0,0,0,0,0,0,0,0,0,1,0,0,Act-1
8.1,1.037,0,1,0,0,0,5.2718,0,1,0,0,0,0,0,0,0,0,0,0,0,0,0,0,Act-1
7.45,1.0118,1.0576,0,0,0,0,8.7425,0,1,1,1,0,0,0,0,0,0,0,1,0,0,0,0,Act-1
7.9667,1,0,0,0,0,0,5.5516,0,1,0,0,0,0,0,0,0,0,0,0,0,0,0,0,Act-1
7.6474,1.1169,0.8901,0,0,9.4103,0,12.3992,0,1,1,1,0,0,0,0,0,0,0,1,0,0,0,0,Act1
7.4841,1.184,1.0266,0,0,6.1628,0,9.9814,0,1,1,1,0,0,0,0,0,0,0,1,0,0,0,0,Act-1
7.0741,1.2768,0.5792,0,0,8.2093,0,7.159,0,1,0,1,0,0,0,0,0,0,0,0,0,1,0,0,Act1
7.6071,1.4224,1.0503,0,0,11.8025,0,16.3142,1,1,1,1,0,4,4,0,0,1,0,0,1,1,0,1,Act1
8.0086,1.4128,0.927,0,0,10.8902,0,10.9306,1,1,1,1,0,0,0,0,0,0,0,0,0,0,0,1,Act1
7.7623,1.2538,1.1847,0,0,0,0,8.6876,0,1,1,1,0,0,0,0,0,0,0,0,0,0,0,0,Act1
8.0476,1.3396,1.1158,0,0,13.239,0,11.36,0,1,1,1,0,0,0,0,0,0,0,0,0,0,0,1,Act1
7.875,1.5391,1.0862,0,0,20.7365,0,17.6782,1,1,1,1,0,0,0,0,0,0,0,0,1,1,0,1,Act1
7.5,1.379,1.0248,0,0,12.5213,0,11.4212,1,1,1,1,1,0,0,0,0,0,0,0,0,0,0,1,Act1
7.4821,1.3731,1.0539,0,0,12.5516,0,12.1466,1,1,1,1,1,0,0,0,0,0,0,0,0,0,0,1,Act1
8.0584,1.4003,1.0457,0,0,8.1907,0,13.2159,1,1,1,1,0,0,0,0,0,0,0,0,0,1,0,1,Act1
7.8333,1.2579,0.7361,0,0,5.7414,0,8.035,1,1,1,1,0,0,0,0,0,0,0,0,0,1,0,0,Act1
7.7179,1.246,0.6086,0,0,7.9362,0,6.1217,0,1,0,0,0,0,0,0,0,0,0,0,0,0,0,0,Act-1
8.4012,1.3016,1.0016,2,0,1.3486,0,7.0973,0,1,1,1,0,0,0,0,0,0,0,0,0,0,0,0,Act-1
8.207,1.015,0.8546,0,0,0,0,9.8348,1,1,1,1,0,0,0,0,0,0,1,0,0,0,0,0,Act-1
7.7222,1.2754,0.8522,0,0,5.5345,0,5.5516,0,1,0,0,0,0,0,0,0,0,0,0,0,0,1,0,Act-1
8.0833,1.2727,0.989,0,0,7.0283,0,5.0401,0,1,1,0,0,0,0,0,0,0,0,0,0,0,0,0,Act-1
7.7315,1.2664,1.0988,0,0,11.5801,0,11.4349,1,1,1,1,0,0,0,0,0,0,0,0,0,0,0,1,Act1
7.1481,1,0,0,0,0,0,5.5516,0,1,0,0,0,0,0,0,0,0,0,0,0,0,0,0,Act-1
7.8712,1.5304,0.9856,0,1,15.7134,0,11.9996,0,1,1,1,0,2,2,0,0,1,0,0,1,1,0,1,Act1
7.8963,1.5275,0.9667,0,1,15.7099,0,13.6337,0,1,1,1,0,2,2,0,0,1,0,0,1,1,0,1,Act-1
7.8309,1.3238,1.0709,0,1,4.723,0,12.8664,1,1,1,1,0,3,3,0,0,1,0,0,1,1,0,1,Act-1
7.6325,1.6883,1.105,0,2,27.9018,0,14.8395,0,1,1,1,0,0,0,0,0,1,0,0,1,0,0,1,Act-1
7.5648,1.3751,0.6785,0,0,9.9817,0,8.7212,0,1,0,1,0,0,0,0,0,1,0,1,0,1,1,1,Act-1
7.8561,1.3382,1.1538,0,0,4.7144,0,10.4602,1,1,1,1,0,4,4,0,0,1,0,0,1,1,0,1,Act-1
7.8698,1.4417,0.9274,1,0,15.5801,0,12.369,0,1,1,1,0,2,2,0,0,1,0,0,1,1,0,1,Act-1
8.5238,1.0558,0,1,0,0,0,2.7495,0,0,0,0,0,0,0,0,0,0,0,0,0,0,0,0,Act-1
7.9548,1.1029,1.0177,0,0,0,0,11.447,0,1,1,1,0,0,0,0,0,0,0,0,0,0,0,0,Act1
7.5481,1.1593,1.0579,0,0,5.9679,0,10.6922,0,1,1,1,0,0,0,0,0,0,0,0,0,0,0,0,Act1
8.5294,1.2784,0.865,0,0,4.1383,0,15.5231,0,1,1,1,0,0,0,0,0,0,0,0,0,0,0,1,Act1
8.1299,1.0992,0.8631,0,0,0,0,12.7858,0,1,1,1,0,0,0,0,0,0,0,0,0,0,0,0,Act1
7.892,1.0832,1.0855,0,0,0,0,12.6989,0,1,1,1,0,0,0,0,0,0,0,0,0,0,0,0,Act-1
8.0563,1.389,0.9807,0,0,0,0,18.7438,0,1,1,1,0,0,0,0,0,0,0,0,0,0,0,0,Act-1
8.0219,1.0337,1.0543,0,0,0,0,9.0844,0,1,1,1,0,0,0,0,0,0,1,1,0,0,0,0,Act-1
7.2257,1,0.9926,0,0,0,0,12.5341,0,1,0,1,0,0,0,0,0,0,0,0,0,1,1,0,Act1
8.1667,1.0417,0.889,1,0,0,0,11.9249,0,1,1,1,0,0,0,0,0,0,0,0,0,0,0,0,Act-1
7.7284,1.3143,0.9627,0,0,19.0458,0,11.8612,0,1,1,1,0,0,0,0,0,0,0,0,0,0,0,1,Act-1
7.675,1.4034,0.9664,0,0,20.8401,0,14.1126,0,1,1,1,0,0,0,0,0,0,0,0,0,1,0,1,Act1
7.8519,1.2124,1.0845,0,0,6.4609,0,9.8746,0,1,1,1,0,0,0,0,0,0,0,0,0,0,0,0,Act-1
7.6196,1.4218,1.0015,0,0,17.7628,0,17.3028,0,1,1,1,0,0,0,0,0,1,0,0,1,1,0,1,Act-1
8.2901,1.0203,0.861,1,0,0,0,12.813,0,1,1,1,0,0,0,0,0,0,0,0,0,0,0,0,Act1
7.9444,1.2643,0.9546,0,0,0,0,11.7628,0,1,1,1,0,0,0,0,0,0,0,0,0,0,0,0,Act1
7.625,1.2378,0.9255,0,0,9.839,0,7.0659,0,1,0,1,0,0,0,0,0,0,0,0,0,0,0,0,Act1
7.6333,1.1612,0.996,1,0,0,0,13.56,0,1,1,1,0,0,0,0,0,0,0,0,0,0,0,0,Act-1
7.6833,1.2483,1.01,1,0,0,0,13.56,0,1,1,1,0,0,0,0,0,0,0,0,0,0,0,0,Act-1
7.4848,1.1513,0.9941,0,0,0,0,15.4807,0,1,1,1,0,0,0,0,0,0,0,0,0,0,0,0,Act-1
8.2092,1.3407,0.9867,0,0,0,0,17.7534,0,1,1,1,0,0,0,0,0,0,0,0,0,0,0,0,Act-1
7.8155,1.1777,0.9017,1,0,5.8674,0,11.5954,0,1,1,1,0,0,0,0,0,0,0,0,0,0,0,0,Act-1
7.94,1.1328,0.9378,0,0,0,0,12.9542,0,1,1,1,0,0,0,0,0,0,0,1,0,0,0,0,Act-1
8.0133,1.1338,0.9377,1,0,0,0,12.8279,0,1,1,1,0,0,0,0,0,0,0,0,0,0,0,0,Act-1
7.5911,1.4415,0.9743,0,0,16.3462,0,12.6313,0,1,1,1,0,2,2,0,0,1,0,1,1,1,0,1,Act-1
7.7971,1.3265,1.012,0,0,18.573,0,8.7579,0,1,1,1,0,0,0,0,0,0,0,1,1,1,0,1,Act-1
7.9236,1.2734,1.0223,0,0,15.4429,0,8.6048,1,1,1,1,0,0,0,0,0,0,0,0,1,1,0,1,Act1
7.9825,1.0428,0.9183,0,0,0,0,9.0691,0,1,1,1,0,0,0,0,1,0,0,0,1,1,0,0,Act-1
7.4333,1.3707,1.0411,0,0,10.4961,0,7.8708,0,1,1,1,0,0,0,0,0,0,0,0,0,0,0,1,Act1
7.8423,1.2579,0.8477,0,0,9.4811,0,12.6853,0,1,1,1,1,0,0,0,0,0,0,0,0,0,0,1,Act1
7.6815,1.5343,0.8784,0,1,16.3084,0,12.2313,0,1,1,1,0,2,2,0,0,1,0,0,1,1,0,1,Act1
7.9556,1.4536,0.954,1,1,14.207,0,11.0759,1,1,1,1,0,0,0,0,0,1,0,0,0,0,0,1,Act1
7.7244,1.4083,1.015,0,0,12.2642,0,17.3654,1,1,1,1,0,0,0,0,0,0,0,0,0,0,0,1,Act-1
7.6586,1.0622,0.9436,0,0,0,0,11.6599,0,1,1,1,0,0,0,0,0,0,0,0,0,0,0,0,Act1
8.0267,1.0849,0.9467,1,0,0,0,12.8279,0,1,1,1,0,0,0,0,0,0,0,0,0,0,0,0,Act1
7.6481,1.0897,0.9885,1,0,0,0,11.9068,0,1,1,1,0,0,0,0,0,0,0,0,0,0,0,0,Act1
7.8462,1.0271,1.002,1,0,0,0,7.7667,0,1,1,1,0,0,0,0,0,0,0,0,0,0,0,0,Act1
7.7619,1.0867,0.9616,1,0,0,0,13.8511,0,1,1,1,0,0,0,0,0,0,0,0,0,0,0,0,Act1
8.8633,1.2238,1.0481,0,0,0.9081,0,8.6642,0,1,1,1,1,0,0,0,0,1,0,0,0,1,1,0,Act1
7.4889,1.0568,0.9782,0,0,0,0,12.6442,0,1,1,1,0,0,0,0,0,0,0,0,0,0,0,0,Act-1
7.5089,1.1553,1.012,0,0,5.983,0,12.598,0,1,1,1,0,0,0,0,0,0,0,0,0,0,0,0,Act-1
7.9257,1.259,0.8005,0,0,18.6362,0,11.1411,0,1,1,1,0,0,0,0,0,0,0,0,0,0,0,1,Act1
7.6389,1.3425,0.6521,0,0,11.1281,0,6.2746,0,1,1,0,0,0,0,0,0,0,0,0,1,1,0,1,Act1
7.8214,1.2319,1.0908,0,0,4.8062,0,7.2635,0,1,1,1,0,0,0,0,0,0,0,0,0,0,0,0,Act1
7.8,1.0795,0.9623,0,0,0,0,17.0984,0,1,1,1,0,0,0,0,0,0,0,0,0,0,0,0,Act-1
7.6149,1.1623,1.0447,0,0,5.5502,0,12.1094,1,1,1,1,0,0,0,0,0,0,0,0,0,0,0,0,Act1
8.0667,1.037,0.7552,1,0,0,0,5.2718,0,1,1,0,0,0,0,0,0,0,0,0,0,0,0,0,Act-1
7.7374,1.0256,0.9968,0,0,0,0,16.8642,0,1,1,1,0,0,0,0,0,0,0,0,0,0,0,0,Act-1
7.9744,1.1066,0.8953,0,0,0,0,7.7667,0,1,1,1,0,0,0,0,0,0,0,1,0,0,0,0,Act1
7.5833,1.088,0.966,1,0,0,0,13.56,0,1,1,1,0,0,0,0,0,0,0,0,0,0,0,0,Act-1
7.5794,1.1344,0.8827,0,0,0,0,7.5423,1,1,1,1,0,0,0,0,0,0,0,0,1,1,0,0,Act1
7.7698,1.1993,0.9839,0,0,5.0945,0,11.8248,1,1,1,1,0,0,0,0,0,0,0,0,0,0,0,0,Act1
7.5694,1.427,0.9896,0,0,0,0,16.7534,0,1,1,1,0,0,0,0,0,0,0,0,0,0,0,0,Act-1
7.6402,1.1876,0.9337,0,0,8.6648,0,10.7008,0,1,1,1,0,0,0,0,0,0,0,0,0,0,1,0,Act-1
8.4304,1.1807,1.0412,4,0,13.7155,3,11.4807,1,1,1,1,0,15,15,0,0,0,0,0,0,1,1,1,Act-1
7.9744,1.0271,0.9073,0,0,0,0,6.9365,0,1,1,1,0,0,0,0,0,0,0,1,0,0,0,0,Act1
7.8889,1.0298,0.8776,1,0,0,0,6.9365,0,1,1,1,0,0,0,0,0,0,0,0,0,0,0,0,Act1
7.4489,1.0567,1.007,0,0,0,0,15.3301,0,1,1,1,0,0,0,0,0,0,0,0,0,0,0,0,Act-1
7.4479,1.0555,0.8909,0,0,0,0,15.2869,0,1,1,1,0,0,0,0,0,0,0,0,0,0,0,0,Act1
7.4489,1.0567,1.007,0,0,0,0,15.3301,0,1,1,1,0,0,0,0,0,0,0,0,0,0,0,0,Act1
7.8232,1.3536,1.1126,0,0,12.0029,0,14.1629,1,1,1,1,0,0,0,0,0,0,0,0,0,0,0,1,Act-1
7.8191,1.2832,1.1317,0,0,11.9899,0,13.292,1,1,1,1,1,0,0,0,0,0,0,0,0,1,0,1,Act1
7.254,1,0.9665,0,0,0,0,15.2124,0,1,1,1,0,0,0,0,0,0,0,0,0,0,0,0,Act-1
7.6714,1.0239,1.0856,0,0,0,0,17.6881,0,1,1,1,0,0,0,1,0,0,0,0,0,0,0,0,Act-1
7.439,1.015,1.001,0,0,0,0,19.3362,0,1,1,1,0,0,0,0,0,0,0,0,0,0,0,0,Act1
7.5901,1.2558,0.9287,0,0,11.7198,0,16.9264,1,1,1,1,0,1,1,0,0,0,0,0,1,0,0,1,Act-1
7.2569,1.1545,0.9835,0,0,10.1397,0,17.0578,0,1,1,1,0,0,0,0,0,0,0,1,0,0,0,0,Act1
7.2197,1.354,0.943,0,0,15.3308,0,15.1558,0,1,0,1,0,0,0,0,0,0,0,1,0,0,0,1,Act-1
7.1812,1.159,0.907,0,0,10.9063,0,16.0155,0,1,0,1,0,0,0,0,0,0,0,1,0,0,0,0,Act1
7.4737,1.0171,0.9551,0,0,0,0,13.513,0,1,1,1,0,0,0,0,0,0,0,0,0,0,0,0,Act1
7.695,1.0172,1.0548,0,0,0,0,15.5022,1,1,1,1,0,0,0,0,0,0,1,1,0,0,0,0,Act-1
7.1746,1.1759,0.9451,0,0,8.7944,0,15.5251,0,1,0,1,0,0,0,0,0,0,0,1,0,0,0,0,Act1
7.3794,1.7243,0.8797,0,0,0,0,10.459,0,1,1,1,0,0,0,0,0,0,0,0,0,0,0,0,Act1
7.4286,1.0152,0.9619,0,0,0,0,15.0367,0,1,1,1,0,0,0,0,0,0,0,0,0,0,0,0,Act-1
7.3706,1.3455,0.8604,0,0,0,0,17.0779,0,1,1,1,0,0,0,0,0,0,0,0,0,0,0,0,Act1
8.024,1.1677,0.9544,0,0,5.2227,0,18.911,1,1,1,1,0,0,0,0,0,0,0,0,0,0,0,0,Act1
7.6768,1.0096,0.945,0,0,0,0,17.1416,1,1,1,1,0,0,0,0,0,0,0,0,0,0,0,0,Act-1
7.6076,1.3065,0.9238,0,0,4.6059,0,16.7366,1,1,1,1,0,0,0,0,0,1,0,0,1,1,0,1,Act-1
7.8111,1.0886,0.9084,0,0,0,0,18.2723,0,1,1,1,0,0,0,0,0,0,0,0,0,0,0,0,Act-1
8.0115,1.0624,1.001,0,0,0,0,11.9068,0,1,1,1,0,0,0,0,0,0,0,0,0,0,0,0,Act-1
7.1,1,0.9675,0,0,0,0,11.9068,0,1,0,1,0,0,0,0,0,0,0,1,0,0,0,0,Act-1
7.1603,1.1462,0.9192,0,0,10.9277,0,18.2751,0,1,0,1,0,0,0,0,0,0,0,1,0,0,0,0,Act-1
7.3108,1.2099,1.0364,0,0,13.8447,0,18.6306,0,1,1,1,0,0,0,0,0,0,0,1,0,1,0,1,Act-1
8.1237,1.0254,1.0335,1,0,0,0,16.0201,1,1,1,1,0,1,1,0,0,0,0,0,0,0,1,0,Act1
7.68,1.0123,0.9736,0,0,0,0,13.56,0,1,1,1,0,0,0,0,0,0,0,0,0,0,0,0,Act1
7.5507,1.0136,0.968,0,0,0,0,13.56,0,1,1,1,0,0,0,0,0,0,0,0,0,0,0,0,Act-1
7.7708,1.0927,0.9899,0,0,0,0,17.8858,1,1,1,1,0,0,0,0,1,1,0,0,1,1,0,0,Act1
7.1724,1,0.9801,0,0,0,0,18.8851,0,1,1,1,0,0,0,0,0,0,0,0,0,0,0,0,Act1
7.2174,1,0.9723,0,0,0,0,16.8642,0,1,1,1,0,0,0,0,0,0,0,0,0,0,0,0,Act-1
7.7006,1.1574,0.9458,0,0,14.0896,1,10.3337,1,1,1,1,0,0,0,0,0,0,0,1,0,0,0,1,Act-1
7.2632,1,0.9626,0,0,0,0,13.56,0,1,1,1,0,0,0,0,0,0,0,0,0,0,0,0,Act-1
7.2941,1,0.9547,0,0,0,0,11.9068,0,1,1,1,0,0,0,0,0,0,0,0,0,0,0,0,Act-1
7.4943,1.2369,0.928,0,0,5.5681,0,18.6897,0,1,1,1,0,0,0,0,0,0,0,0,0,0,0,0,Act-1
7.6039,1.0112,1.0922,0,0,0,0,11.9068,1,1,1,1,0,0,0,0,0,0,1,1,0,0,0,0,Act1
7.5942,1.0136,0.9813,1,0,0,0,8.5959,0,1,1,1,0,0,0,0,0,0,0,0,0,0,0,0,Act1
8.2042,1.0468,0.9388,0,0,0,0,8.5959,0,1,1,1,0,0,0,0,0,0,1,1,0,0,0,0,Act-1
7.4375,1,0.9478,0,0,0,0,8.5959,0,1,1,1,0,0,0,0,0,0,0,0,0,0,0,0,Act1
7.575,1,0.8616,0,0,0,0,8.5959,0,1,1,1,0,0,0,0,0,0,0,0,0,0,0,0,Act1
8.0833,1.0385,0.9328,0,0,0,0,8.5959,0,1,1,1,0,0,0,0,0,0,1,1,0,0,0,0,Act1
7.386,1,0.965,0,0,0,0,9.9152,0,1,1,1,0,0,0,0,0,0,0,0,0,0,0,0,Act1
7.7523,1.1868,1.0421,0,0,5.3244,0,14.0176,0,1,0,1,0,0,0,0,0,0,0,0,0,1,0,0,Act1
7.6146,1.4265,1.0597,0,0,14.5966,0,12.4998,1,1,1,1,0,0,0,0,0,0,0,0,1,0,0,1,Act1
8.5093,1.1127,1.0591,0,0,0,0,3.5961,0,1,1,1,0,0,0,0,1,0,0,0,0,1,0,0,Act-1
7.8333,1.4976,0.9985,0,1,19.4656,0,17.1001,1,1,1,1,0,4,4,0,0,1,0,0,0,0,1,1,Act-1
7.7348,1.3317,1.1152,0,0,13.4675,0,12.5424,1,1,1,1,0,0,0,0,0,0,0,0,0,0,0,1,Act1
8.8085,1.0337,0.7031,0,0,0,0,6.2612,1,1,1,1,0,0,0,0,0,0,1,1,0,0,0,0,Act-1
8.1019,1.1669,1.0023,1,0,4.4069,0,12.7763,1,1,1,1,0,0,0,0,0,0,0,0,0,0,0,0,Act1
7.7611,1.1852,0.9984,0,0,4.8784,0,17.1402,1,1,1,1,0,1,1,0,1,0,0,0,0,1,0,0,Act1
7.7759,1.1887,0.9555,0,0,4.8745,0,16.1733,1,1,1,1,0,1,1,0,1,0,0,0,0,1,0,0,Act1
7.7567,1.3012,0.9923,0,0,9.8736,0,9.5445,1,1,1,1,0,0,0,0,1,0,0,0,1,1,0,1,Act1
7.5893,1.4244,1.019,0,1,15.5873,0,13.3032,0,1,1,1,0,0,0,0,0,1,0,0,0,0,0,1,Act1
8.4,1.1205,1.2361,0,0,0,0,6.2612,1,1,1,1,0,0,0,0,1,1,0,0,1,1,0,0,Act-1
8.3848,1.3389,1.0129,0,0,16.6321,2,16.259,1,1,1,1,0,7,7,0,0,0,1,1,1,0,1,1,Act-1
8.1829,1.3452,0.99,0,0,26.3958,0,16.1174,1,1,1,1,0,6,6,0,0,0,0,0,1,0,0,1,Act-1
7.8864,1.2162,1.1108,0,0,5.4077,0,10.1051,0,1,1,1,0,0,0,0,0,0,0,0,1,0,0,0,Act1
7.7424,1.2343,1.2376,0,0,0,0,10.5321,1,1,1,1,0,0,0,0,0,0,0,0,0,0,0,0,Act1
7.5901,1.4058,1.0321,0,0,21.6674,0,16.2946,1,1,1,1,1,1,1,0,0,0,0,0,0,1,0,1,Act1
7.6111,1.3939,0.8866,0,0,9.5695,0,14.6522,1,1,1,1,2,1,1,0,0,0,0,0,1,1,0,1,Act1
7.7613,1.2277,0.893,1,0,13.14,0,10.9621,0,1,1,1,0,0,0,0,0,0,0,0,1,0,0,1,Act-1
7.5,1.0298,0.6181,0,0,0,0,6.3053,0,1,0,1,0,0,0,0,0,0,0,1,0,0,0,0,Act-1
7.581,1.4889,0.9823,0,0,17.6442,0,13.42,0,1,1,1,0,0,0,0,0,0,0,0,0,0,0,1,Act-1
7.6364,1.181,0.883,0,0,6.8339,0,10.8227,0,1,1,1,0,0,0,0,0,0,0,0,0,0,1,0,Act-1
7.6548,1.016,0.9781,0,0,0,0,6.3053,1,1,1,1,0,0,0,0,1,0,0,0,0,0,0,0,Act1
8.2222,1,0.4817,0,0,0,0,1.8899,0,1,1,0,0,0,0,0,0,0,0,0,0,0,0,0,Act-1
7.7882,1.3061,0.9608,0,0,9.8318,0,8.6535,1,1,1,1,0,0,0,0,1,0,0,0,1,1,0,1,Act1
7.744,1.42,0.883,0,1,10.7989,0,9.3104,1,1,1,1,0,0,0,0,0,0,0,0,0,1,0,1,Act1
7.4514,1.4338,1.0979,0,1,16.5483,0,11.9044,0,1,1,1,0,0,0,0,0,0,0,0,0,1,0,1,Act1
7.6975,1.3486,0.8718,0,0,9.1693,0,12.43,1,1,1,1,0,1,1,0,0,0,0,0,0,0,0,1,Act1
7.5,1.184,1.0739,0,0,6.144,0,9.9814,0,1,1,1,0,0,0,0,0,0,0,0,0,0,0,0,Act1
8.1212,1.0648,0.8893,0,0,0,0,1.8899,0,1,0,0,0,0,0,0,0,0,0,0,0,1,1,0,Act-1
7.9983,1.2857,0.9116,0,0,9.2375,0,15.7594,1,1,1,1,0,0,0,0,0,1,0,0,1,0,0,1,Act-1
8.1898,1.2306,1.0866,0,0,6.3066,0,7.8784,0,1,1,1,1,0,0,0,1,0,0,0,0,0,0,0,Act-1
7.6667,1.2129,1.1647,0,0,7.4496,0,7.09,1,1,1,1,0,1,1,0,0,0,0,1,0,0,0,0,Act-1
7.6032,1.2013,1.0543,0,0,7.5055,0,11.1288,1,1,1,1,0,1,1,0,0,0,0,1,0,0,0,0,Act-1
7.6842,1.2129,1.1591,0,0,7.4255,0,7.09,1,1,1,1,0,1,1,0,0,0,0,0,0,0,0,0,Act-1
7.8444,1.2145,0.856,0,0,6.651,0,7.09,0,1,1,1,0,0,0,0,0,0,0,0,0,0,0,0,Act-1
7.9286,1.2417,1.2157,0,0,6.7223,0,7.09,0,1,0,1,0,0,0,0,0,0,0,0,0,0,1,0,Act-1
8.0714,1.2417,1.1712,0,0,6.0278,0,7.09,0,1,1,1,0,0,0,0,0,0,0,0,0,0,0,0,Act-1
7.862,1.3962,1.0586,0,1,15.0375,0,12.2026,0,1,1,1,1,1,1,0,0,0,0,0,1,0,0,1,Act1
8,1.2341,0.9864,0,0,7.29,0,7.8784,0,1,1,1,0,0,0,0,0,0,0,0,0,0,0,0,Act1
8.4583,1.4836,0.824,0,0,16.4785,0,13.5858,1,1,1,1,0,0,0,0,0,0,0,0,0,1,0,1,Act-1
7.6,1.3549,1.0583,0,0,9.4664,0,12.4228,1,1,1,1,0,0,0,0,0,0,0,1,0,0,0,1,Act-1
7.6133,1.3549,1.0338,0,0,9.4429,0,12.4228,1,1,1,1,0,0,0,0,0,0,0,0,0,0,0,1,Act-1
7.7348,1.2042,1.0841,0,0,5.0087,0,10.84,1,1,1,1,0,1,1,0,0,0,0,0,0,0,1,0,Act-1
7.5238,1.1863,1.082,0,0,7.5905,0,11.9541,0,1,1,1,0,0,0,0,0,0,0,0,0,0,0,0,Act1
7.5909,1.2298,0.9555,0,0,18.0096,0,16.7644,0,1,1,1,0,0,0,0,0,0,0,1,0,0,0,1,Act1
7.4444,1.1774,1.1449,0,0,7.9226,0,8.4774,0,1,1,1,0,0,0,0,0,0,0,0,0,0,0,0,Act-1
7.8646,1.216,0.9072,0,0,6.4787,0,6.3053,0,1,1,1,0,0,0,0,0,0,0,0,0,0,0,0,Act1
7.5278,1.1882,0.8605,0,0,4.1155,0,9.9472,0,1,1,1,0,0,0,0,0,0,0,0,0,0,0,0,Act1
7.9028,1.182,0.8733,1,0,7.2089,0,14.5515,0,1,1,1,0,0,0,0,0,0,0,0,0,0,0,0,Act1
7.6726,1.3092,1.0173,0,0,7.9385,0,9.8098,1,1,1,1,1,0,0,0,0,1,0,0,0,1,0,1,Act1
7.575,1.2084,1.2168,0,0,6.0907,0,9.1844,0,1,0,1,0,0,0,0,0,0,0,0,0,0,0,0,Act-1
8.1042,1.1808,0.9144,1,0,8.5921,0,9.989,1,1,1,1,0,0,0,0,0,0,0,0,0,0,0,0,Act-1
7.8185,1.3597,1.0047,0,0,20.9094,0,9.2285,1,1,1,1,0,1,1,0,0,0,0,0,0,0,0,1,Act-1
7.4352,1.1989,0.8834,0,0,5.9492,0,8.4443,1,1,1,1,0,0,0,0,0,0,0,0,0,0,0,0,Act1
7.4352,1.1965,0.907,0,0,5.8586,0,8.3365,0,1,1,1,0,0,0,0,0,0,0,0,0,0,0,0,Act1
7.5351,1.2227,1.1149,0,0,6.2069,0,8.5777,0,1,0,1,0,0,0,0,0,0,0,0,0,0,0,0,Act-1
7.4242,1.2651,1.1123,0,0,12.5304,0,9.7029,0,1,1,1,0,0,0,0,0,0,0,0,0,0,0,1,Act1
7.4405,1.1687,1.1478,0,0,0,0,6.6787,0,1,0,1,0,0,0,0,0,0,0,0,0,0,1,0,Act-1
7.9401,1.4193,1.0556,0,0,11.6409,0,12.4761,1,1,1,1,1,4,4,0,1,1,0,1,1,1,0,1,Act1
7.2273,1.273,1.0363,0,0,9.113,0,7.8145,0,1,0,1,0,0,0,0,0,0,0,0,0,0,0,1,Act-1
7.5417,1.443,0.8796,0,1,14.0423,0,9.5958,0,1,1,1,0,0,0,0,0,0,0,0,0,1,0,1,Act1
7.7244,1.2045,0.897,0,0,5.7535,0,8.8251,1,1,1,1,0,0,0,0,0,1,0,0,0,1,0,0,Act1
7.7622,1.2041,1.0811,0,0,5.6004,0,11.2087,0,1,1,1,0,0,0,0,0,1,0,0,0,1,0,0,Act1
7.6975,1.1999,1.0243,0,0,5.8821,0,10.6312,0,1,1,1,0,0,0,0,0,1,0,0,0,1,0,0,Act1
7.525,1.1892,1.1798,0,0,6.1299,0,9.1008,0,1,0,1,0,0,0,0,0,0,0,0,0,0,0,0,Act-1
8.0152,1.1844,1.0907,0,1,1.6062,0,9.1255,1,1,1,1,0,0,0,0,1,1,0,0,0,1,0,0,Act-1
7.8659,1.4655,1.0761,0,0,9.8549,0,10.7248,1,1,1,1,0,2,2,0,1,0,0,0,0,1,0,1,Act1
7.9737,1.2001,0.7266,0,0,1.8254,0,8.3199,0,1,1,1,1,0,0,0,0,0,0,0,0,0,0,0,Act1
7.7083,1.2285,0.8069,0,0,7.7877,0,9.1761,0,1,0,1,0,0,0,0,0,0,0,0,0,0,0,0,Act-1
7.74,1.3373,0.885,0,0,17.2031,0,13.4922,0,1,1,1,0,0,0,0,0,0,0,0,0,0,0,1,Act1
8,1.4576,0.9336,0,0,10.8245,0,10.6803,1,1,1,1,0,0,0,0,0,0,0,0,1,1,0,1,Act1
8.1538,1.2532,0.9581,0,0,5.9918,0,6.3233,0,1,1,1,0,0,0,0,0,0,0,0,0,0,0,0,Act1
7.9028,1.2607,0.9013,0,0,9.0116,0,6.7572,0,1,0,1,0,0,0,0,0,0,0,0,0,0,0,0,Act1
7.5957,1.2267,1.1499,0,0,19.4065,0,7.5307,0,1,1,1,0,0,0,0,0,0,0,0,0,0,0,1,Act1
7.9213,1.4433,1.0664,0,0,12.2383,0,8.4789,1,1,1,1,0,0,0,0,0,0,0,0,0,1,0,1,Act-1
7.7698,1.216,1.0196,0,0,4.9965,0,10.4602,1,1,1,1,0,1,1,0,0,0,0,0,0,0,1,0,Act1
7.7698,1.2044,0.8724,0,0,4.9978,0,10.334,1,1,1,1,0,0,0,0,0,0,0,0,0,0,1,0,Act1
7.8704,1.3486,1.1908,0,0,5.6707,0,6.6787,1,1,1,1,0,0,0,0,0,0,0,0,0,0,0,1,Act-1
7.6167,1.3979,1.0407,0,0,12.5224,0,11.8725,1,1,1,1,0,0,0,0,0,1,0,0,1,1,0,1,Act1
8.0694,1.3722,0.9018,0,0,3.9367,0,9.3291,1,1,1,1,0,0,0,0,0,1,0,0,1,1,0,1,Act1
7.8148,1.3486,1.0438,0,1,6.0141,0,5.5516,0,1,1,1,0,0,0,0,0,0,0,0,0,0,0,1,Act1
7.8696,1.2491,0.995,0,0,1.645,0,9.4494,1,1,1,1,1,0,0,0,0,1,0,0,0,1,1,0,Act1
8.0178,1.3623,0.967,0,0,13.9711,0,9.5732,0,1,1,1,0,0,0,0,0,0,0,0,0,1,0,1,Act1
7.7407,1.2234,1.217,0,0,7.6476,0,7.3978,1,1,1,1,0,0,0,0,0,0,0,0,0,0,0,0,Act1
7.8833,1.2865,0.8457,0,0,17.9052,0,10.63,1,1,1,1,1,0,0,0,0,0,0,0,0,0,0,1,Act1
8.0104,1.3064,0.778,0,0,8.7435,0,9.2155,0,1,1,1,2,0,0,0,0,0,0,0,0,1,0,0,Act1
7.5947,1.2819,1.1361,0,0,4.0653,0,12.3716,1,1,1,1,0,1,1,0,0,0,0,0,0,1,0,0,Act-1
8.0167,1.2096,0.9987,0,0,3.4378,0,7.1922,1,1,1,1,0,0,0,0,0,1,0,0,0,1,0,0,Act1
8.1006,1.3079,0.934,0,0,4.4407,0,11.705,1,1,1,1,0,0,0,0,0,0,0,1,0,0,0,1,Act1
7.662,1.1836,0.6652,0,0,10.0873,0,7.2334,1,1,0,1,0,0,0,0,0,0,0,0,1,0,1,0,Act-1
7.9254,1.3069,0.8755,0,0,15.9882,0,12.2329,1,1,1,1,1,0,0,0,1,0,0,0,0,1,0,1,Act1
7.6304,1.4574,1.0687,0,1,15.8365,0,10.0236,1,1,1,1,0,0,0,0,0,0,0,0,1,0,0,1,Act1
7.8657,1.3609,1.133,0,0,13.4899,0,12.6826,1,1,1,1,0,0,0,0,0,0,0,0,1,0,0,1,Act1
7.7143,1.2432,0.9127,0,0,7.7216,0,6.7086,0,1,0,0,0,0,0,0,0,0,0,0,0,0,0,0,Act-1
7.7586,1.1728,1.1121,0,0,4.0713,0,8.7874,1,1,1,1,0,0,0,0,0,0,0,0,0,1,0,0,Act1
7.4933,1.2729,0.7944,0,0,8.7625,0,9.0033,1,1,1,1,0,1,1,0,1,0,0,0,0,0,0,1,Act-1
7.6061,1.433,1.0465,0,0,16.0392,0,7.6311,0,1,0,1,0,0,0,0,1,0,0,0,0,0,0,1,Act1
7.619,1.0209,0.5363,0,0,0,0,1,1,1,0,1,0,0,0,0,1,0,0,0,0,0,0,0,Act-1
7.5208,1.0415,1.2483,0,0,0,0,1.8899,0,1,0,1,2,0,0,0,0,0,0,0,0,0,0,0,Act-1
7.3333,1.3479,1.1257,0,0,17.4849,0,8.6534,0,1,0,1,1,0,0,0,0,0,0,0,0,0,0,1,Act1
7.5667,1.3596,0,0,0,3.5729,0,2.7495,0,1,0,0,0,0,0,0,0,1,0,0,0,1,0,1,Act-1
7.6891,1.2101,0.8647,0,0,9.1937,0,11.7171,1,1,1,1,0,0,0,0,0,0,0,0,0,0,0,0,Act-1
7.6569,1.2294,1.493,0,0,6.0325,0,6.5467,0,1,0,1,0,0,0,0,0,0,0,0,0,0,0,0,Act1
7.9417,1.2426,1.2592,0,0,5.2569,0,6.5427,0,1,1,1,0,0,0,0,0,0,0,0,0,0,0,0,Act-1
7.9825,1.2287,1.1177,0,0,6.708,0,7.6095,1,1,1,1,0,0,0,0,0,0,0,0,0,0,0,0,Act-1
8.0538,1.2873,1.1889,0,0,1.0775,1,15.0161,0,1,1,1,2,2,2,0,0,0,0,1,0,0,0,0,Act-1
7.6511,1.4816,0.9489,0,0,14.9863,0,10.573,1,1,1,1,0,1,1,0,0,0,0,0,0,1,0,1,Act-1
6.5503,1.4719,1.0532,0,0,11.9109,0,11.1083,1,1,1,1,0,1,1,0,0,0,0,0,0,1,0,1,Act1
7.5072,1.5173,0.9289,0,0,15.7677,0,13.7339,0,1,0,1,0,1,1,0,0,0,0,0,0,1,0,1,Act1
7.4596,1.3592,0.8927,0,0,9.7413,0,10.6523,0,1,0,1,0,1,1,0,0,0,0,0,0,1,0,1,Act-1
6.9933,1.2822,1.2129,0,0,19.9138,0,10.4585,0,1,0,1,0,0,0,0,0,0,0,0,0,1,0,1,Act1
7.5972,1.367,1.0718,0,0,9.9204,0,15.4156,1,1,1,1,0,0,0,0,0,0,0,0,0,1,0,1,Act1
7.5677,1.4869,1.1003,0,1,15.9157,0,15.6404,0,1,1,1,0,0,0,0,0,0,0,0,1,1,0,1,Act1
7.7586,1.4343,1.0949,0,1,12.9406,0,11.3585,1,1,1,1,0,0,0,0,0,1,0,0,0,1,0,1,Act1
7.5735,1.3216,1.314,0,0,11.322,0,11.6428,0,1,1,1,0,0,0,0,0,0,0,0,0,0,0,1,Act1
7.9195,1.3829,0.9559,0,0,4.1972,0,13.165,1,1,1,1,0,0,0,0,0,0,0,0,0,1,0,1,Act1
8.3509,1.3783,1.0503,2,0,4.1972,0,13.165,1,1,1,1,0,0,0,0,0,0,0,0,0,1,0,1,Act1
7.9253,1.338,0.927,0,0,4.1814,0,13.165,1,1,1,1,0,0,0,0,0,0,0,0,0,1,0,0,Act1
7.8722,1.215,1.1063,0,0,3.0874,0,7.5854,1,1,1,1,0,1,1,0,0,0,0,0,0,0,1,0,Act-1
8.072,1.2372,1.1352,0,0,4.2752,0,7.8547,1,1,1,1,0,0,0,0,0,0,0,0,0,0,0,0,Act-1
7.7647,1.2139,1.0423,0,0,6.9472,0,6.3998,1,1,1,1,0,1,1,0,0,0,0,0,0,0,1,0,Act-1
7.587,1.1686,0.9779,0,0,9.8092,0,9.692,0,1,1,1,0,0,0,0,0,0,0,0,0,0,0,0,Act-1
7.5417,1.3575,1.0967,0,0,12.0309,0,10.6761,0,1,0,1,0,0,0,0,0,0,0,0,0,0,0,1,Act1
7.7244,1.4321,1.184,0,1,10.4665,0,11.3668,1,1,1,1,0,0,0,0,0,0,0,0,0,1,0,1,Act1
7.5298,1.3227,1.1578,0,0,14.7018,0,11.375,1,1,1,1,0,0,0,0,0,0,0,0,0,0,0,1,Act-1
7.5516,1.165,0.952,0,0,10.1557,0,9.0877,1,1,1,1,0,0,0,0,0,0,0,0,1,0,0,0,Act-1
7.9043,1.2168,1.0898,0,0,4.7568,0,6.1677,1,1,1,1,0,1,1,0,0,0,0,0,0,0,1,0,Act1
7.8021,1.216,1.2592,0,0,6.5696,0,5.7435,1,1,1,1,0,0,0,0,0,0,0,0,0,0,0,0,Act1
7.4866,1.3855,1.1551,0,0,28.581,0,11.2366,0,1,1,1,0,0,0,0,0,0,0,0,0,0,0,1,Act-1
7.45,1.322,0.8815,0,0,6.1226,0,6.5291,1,1,1,1,0,1,1,0,0,0,0,0,0,0,0,1,Act1
7.5903,1.341,1.1157,0,0,17.6705,0,12.0848,0,1,1,1,0,0,0,0,0,0,0,0,0,0,0,1,Act1
7.6076,1.1636,0.7241,0,0,9.9269,0,9.1345,0,1,1,1,0,0,0,0,0,0,0,0,0,0,0,0,Act1
7.566,1.1509,0.7686,0,0,10.0829,0,9.0877,0,1,1,1,0,0,0,0,0,0,0,0,1,0,0,0,Act1
7.9556,1.3148,1.0695,0,0,11.2584,0,11.7421,1,1,1,1,0,0,0,0,0,0,0,0,1,0,0,1,Act1
7.9672,1.2989,1.0533,0,0,4.81,0,12.4378,1,1,1,1,0,0,0,0,0,0,0,0,1,0,0,1,Act1
8.15,1.3776,1.0705,0,0,12.3717,0,10.095,0,1,1,1,0,0,0,0,0,0,0,0,0,0,0,1,Act1
8.0651,1.4061,1.1392,0,0,19.1348,0,15.0242,1,1,1,1,0,0,0,0,0,0,0,0,0,0,0,1,Act1
7.8254,1.3031,0.8841,0,0,16.6305,0,8.39,0,1,1,1,0,0,0,0,0,0,0,0,0,0,0,1,Act1
7.3016,1.2977,1.0997,0,0,21.6158,0,12.3441,0,1,0,1,0,0,0,0,0,0,0,0,0,0,0,1,Act1
7.672,1.266,0.8953,0,0,13.2844,0,12.8828,1,1,1,1,0,0,0,0,0,0,0,0,0,0,0,1,Act1
7.8684,1.5077,0.9266,0,0,14.5705,0,15.4112,1,1,1,1,0,0,0,0,0,1,0,0,0,1,0,1,Act1
8.0806,1.5046,0.9328,0,0,14.2416,0,15.5171,1,1,1,1,0,0,0,0,0,1,1,0,0,1,0,1,Act-1
7.9779,1.3619,0.8271,0,0,6.1874,0,13.8284,1,1,1,1,1,1,1,0,0,0,0,0,0,1,0,1,Act1
7.8611,1.206,0.6792,0,0,4.8674,0,7.5786,1,1,1,1,0,1,1,0,0,0,0,0,0,0,0,0,Act1
7.6135,1.354,0.8947,0,0,9.6256,0,10.0946,0,1,1,1,0,1,1,0,0,0,0,0,0,1,0,1,Act1
7.947,1.0329,0.9778,0,0,0,2,8.7055,1,1,1,1,0,1,1,0,0,0,0,0,0,1,1,0,Act-1
8.2609,1.1916,0.8332,0,0,1.3678,0,5.4507,1,1,1,1,2,0,0,0,0,0,0,0,0,0,1,0,Act-1
7.3765,1.6688,0.8634,0,0,17.2065,0,12.8619,0,1,0,1,0,0,0,0,0,0,0,1,0,0,0,1,Act-1
8.1019,1.319,0.8654,0,0,6.0906,1,9.074,1,1,1,1,0,0,0,0,0,0,0,1,0,0,0,1,Act1
7.5521,1.4337,1.0268,0,1,5.8,0,9.4467,1,1,1,1,0,1,1,0,0,1,0,0,0,1,0,1,Act1
7.8211,1.3753,1.0032,0,0,1.5655,1,8.5557,0,1,1,1,0,1,1,0,0,1,0,0,1,1,1,1,Act1
7.7269,1.4555,0.9342,0,0,15.236,0,10.9874,0,1,0,1,1,2,2,0,0,1,0,0,1,1,0,1,Act1
7.5764,1.5362,1.218,0,0,12.2361,0,9.0636,0,1,0,1,2,0,0,0,0,0,0,0,1,1,0,1,Act1
7.869,1.3723,0.8333,0,1,5.5681,0,8.8058,1,1,1,1,0,0,0,0,1,1,0,0,0,1,0,1,Act1
8.0556,1.2255,0.8311,0,0,9.2491,0,5.6502,0,1,1,1,0,0,0,0,1,0,0,0,1,0,0,0,Act1
7.8732,1.073,0.862,0,0,8.523,0,11.3524,1,1,1,1,0,0,0,0,0,0,0,0,0,0,0,0,Act-1
7.6306,1.5101,1.0395,0,0,17.8437,0,12.6827,1,1,1,1,0,2,2,0,0,0,0,0,1,1,0,1,Act1
7.9194,1.3211,1.0083,1,0,11.2194,0,8.2794,0,1,1,1,0,1,1,0,0,1,0,0,1,1,0,1,Act1
7.8003,1.3073,1.0118,0,0,11.0946,0,11.082,1,1,1,1,0,0,0,0,0,0,0,0,1,1,0,1,Act1
7.6278,1.3345,1.0113,0,0,14.5311,0,14.6446,0,1,1,1,1,0,0,0,0,0,0,0,0,1,0,1,Act1
7.6449,1.3987,0.9153,0,0,14.0262,0,8.8663,0,1,1,1,1,0,0,0,0,0,0,0,0,0,0,1,Act1
8.0574,1.4305,0.859,0,0,17.5582,0,11.1923,1,1,1,1,1,0,0,0,0,0,0,0,0,0,0,1,Act1
7.8943,1.4294,0.8894,0,0,19.323,0,11.1923,1,1,1,1,1,0,0,0,0,0,0,0,0,0,0,1,Act1
8.0574,1.4305,0.8719,0,0,17.6379,0,12.2094,0,1,1,1,1,0,0,0,0,0,0,0,0,1,0,1,Act1
7.8943,1.4294,0.9812,0,0,19.4027,0,12.2094,0,1,1,1,1,0,0,0,0,0,0,0,0,1,0,1,Act1
7.746,1.5502,0.9827,0,1,17.5972,1,11.5035,1,1,1,1,0,2,2,0,0,1,0,0,1,1,1,1,Act1
7.7759,1.307,1.173,0,0,15.3329,0,11.4189,1,1,1,1,0,0,0,0,0,0,0,0,1,0,0,1,Act1
7.4828,1.1549,0.8741,0,0,8.0992,0,12.789,0,1,1,1,0,0,0,0,1,0,0,0,1,1,0,0,Act1
8.3667,1.2447,0.7206,0,0,0.9282,1,7.5786,0,1,1,1,0,0,0,0,0,0,0,1,1,1,1,0,Act-1
8.2029,1.2508,0.9666,0,0,2.7816,1,4.3528,0,1,1,1,0,0,0,0,0,0,0,1,1,1,1,0,Act-1
8.3467,1.2447,0.7648,1,0,0.9458,0,7.5786,0,1,1,1,0,0,0,0,0,0,0,0,1,1,0,0,Act-1
8.1812,1.2508,0.9731,1,0,2.8057,0,4.3528,0,1,1,1,0,0,0,0,0,0,0,0,1,1,0,0,Act-1
8.2246,1.2508,0.9667,1,0,1.0979,0,4.7622,0,1,1,1,0,0,0,0,0,1,0,0,1,1,0,0,Act-1
8.2353,1.294,0.4791,1,0,3.3273,0,5.5516,0,1,1,0,0,0,0,0,0,1,0,0,0,0,0,0,Act-1
8.0476,1.259,0.9769,1,0,1.4414,0,4.3528,0,1,1,1,0,0,0,0,0,1,0,0,1,1,0,0,Act-1
7.503,1.1933,0.9254,0,0,20.8084,0,7.241,0,1,1,1,0,0,0,0,0,0,0,0,1,0,0,1,Act1
7.8114,1.2654,1.0349,0,0,10.404,0,10.5107,1,1,1,1,0,0,0,0,1,0,0,0,0,1,0,1,Act1
8.2792,1.2803,0.9659,0,0,5.7262,0,7.8547,0,1,1,1,1,0,0,0,1,1,0,0,0,1,1,0,Act-1
8.0833,1.2149,1.034,0,0,3.9991,0,9.4274,1,1,1,1,0,1,1,0,0,0,0,0,0,0,1,0,Act-1
7.9637,1.2832,0.9907,0,0,4.7876,0,12.0114,0,1,1,1,1,0,0,0,1,0,0,0,0,1,1,1,Act1
7.5694,1.2415,1.0765,0,0,19.8123,0,9.83,1,1,1,1,0,0,0,0,0,0,0,0,0,0,0,1,Act1
7.8333,1.047,0,0,0,0,0,1.8899,0,0,0,0,0,0,0,0,0,0,0,0,0,0,0,0,Act-1
8.0033,1.2084,1.0202,0,0,2.7083,0,10.758,1,1,1,1,1,1,1,0,0,0,0,0,0,0,1,0,Act-1
8.3313,1.1441,0.8943,1,0,0,0,8.7055,1,1,1,1,3,2,2,1,1,0,0,0,0,1,0,0,Act-1
8.294,1.1102,0.9494,0,0,8.2342,0,9.6717,1,1,1,1,1,0,0,1,1,0,0,1,0,0,0,0,Act-1
8.2841,1.1947,0.9196,0,0,5.3271,0,11.6426,1,1,1,1,3,2,2,1,1,0,0,1,0,1,0,1,Act-1
7.4815,1.2863,0.9806,0,0,9.2459,0,9.6111,0,1,0,1,0,0,0,0,0,1,0,0,1,0,0,1,Act-1
8.0192,1.2324,1.2547,1,0,2.9327,0,7.2058,0,1,1,1,0,0,0,0,0,0,0,0,1,1,0,0,Act-1
7.8401,1.3956,1.183,0,0,16.9532,0,10.9663,1,1,1,1,1,0,0,0,0,0,0,0,0,0,0,1,Act1
7.8654,1.4094,1.1375,0,0,9.2672,0,6.8847,1,1,1,1,0,2,2,0,0,1,0,0,1,1,0,1,Act1
7.6667,1.3026,0.957,0,0,8.0656,0,14.914,1,1,1,1,0,2,2,0,0,0,0,0,1,1,0,1,Act1
7.3567,1.2571,0.8624,0,0,6.4276,0,6.3053,0,1,0,1,1,1,1,0,0,0,0,0,1,1,0,1,Act1
7.3542,1.3104,1.0807,0,0,18.8606,0,11.0151,0,1,1,1,0,0,0,0,0,0,0,0,1,0,0,1,Act1
7.7568,1.4992,1.1237,0,1,9.7848,0,13.349,0,1,0,1,0,2,2,0,0,1,0,0,1,1,0,1,Act1
8.2719,1.2675,0.7291,1,0,3.1404,0,4.7622,1,1,1,0,0,0,0,0,0,0,0,0,0,0,0,0,Act-1
7.7481,1.4423,1.054,0,0,13.3078,0,9.8545,1,1,1,1,0,0,0,0,0,1,0,0,1,1,0,1,Act1
7.7037,1.4315,1.1592,0,0,10.8775,0,11.4082,1,1,1,1,0,3,3,0,0,1,0,0,1,1,0,1,Act1
7.8905,1.3583,1.1522,0,0,13.4045,0,11.7677,1,1,1,1,0,0,0,0,0,0,0,0,1,0,0,1,Act1
7.8167,1.2668,0.8768,0,0,10.056,0,15.8712,0,1,1,1,0,0,0,0,0,0,0,0,0,0,0,0,Act-1
7.8699,1.3396,1.0073,0,0,17.187,0,16.6469,1,1,1,1,0,1,1,0,1,0,0,0,1,1,0,1,Act1
7.7475,1.447,1.337,0,0,12.4106,0,8.7795,0,1,1,1,1,2,2,0,1,1,0,0,1,1,0,1,Act1
7.7688,1.4545,1.0622,0,0,15.0871,1,11.561,0,1,1,1,0,0,0,1,0,1,0,0,1,1,1,1,Act-1
7.7381,1.4651,1.0844,0,0,14.8565,0,8.5666,0,1,0,1,0,2,2,0,0,0,0,0,0,1,0,1,Act-1
7.9744,1.2336,0.9431,0,0,6.6736,0,5.9528,0,1,1,1,0,0,0,0,0,0,0,0,0,0,0,0,Act-1
7.7564,1.607,1.2257,0,0,20.7301,0,8.048,0,1,0,1,0,0,0,0,0,1,0,0,0,1,1,1,Act1
8.2125,1.3478,1.1459,1,0,9.5194,0,11.0294,1,1,1,1,2,1,1,1,0,1,1,1,1,1,0,1,Act-1
8.2125,1.3478,1.1459,1,0,9.5194,0,11.0294,1,1,1,1,2,1,1,1,0,1,1,1,1,1,0,1,Act-1
8.1458,1.3426,1.1224,1,0,14,0,10.8661,0,1,1,1,0,0,0,0,0,0,1,0,0,0,0,1,Act1
8.0675,1.1343,0.7515,0,0,4.5078,0,12.6378,1,1,1,1,0,1,1,0,0,0,0,0,0,0,1,0,Act-1
8.057,1.2645,1.1114,0,0,10.5896,0,14.8845,1,1,1,1,0,1,1,0,0,0,0,0,0,1,0,1,Act-1
8.1349,1.552,1.2359,0,0,6.7767,0,8.5508,0,1,0,1,1,0,0,0,0,1,0,0,0,1,0,1,Act-1
7.6859,1.5,0.8496,0,0,2.0739,0,11.5617,0,1,1,1,0,0,0,0,0,0,0,0,0,0,0,0,Act-1
8.2174,1.5206,1.2449,0,0,15.1968,0,15.7542,1,1,1,1,0,2,2,0,0,0,0,0,1,1,1,1,Act1
8.358,1.0419,0,0,0,0,0,0,0,0,0,0,1,0,0,0,0,0,0,0,0,0,1,0,Act-1
8.0278,1.0367,0.8426,0,0,0,0,9.6759,1,1,1,1,0,0,0,0,0,0,0,0,0,0,0,0,Act1
8.0056,1.3216,0.971,1,0,18.1128,0,12.4292,1,1,1,1,0,0,0,0,0,0,0,0,1,0,0,1,Act1
7.9278,1.1508,1.0113,1,0,9.5693,0,8.5666,1,1,1,1,0,0,0,0,1,0,0,0,0,0,0,0,Act-1
7.9242,1.2427,1.0815,1,0,17.726,0,13.2595,0,1,1,1,0,0,0,0,0,0,0,0,0,0,0,1,Act1
8.2011,1.1509,0.9836,1,0,9.5693,0,8.5666,1,1,1,1,0,0,0,0,1,0,0,0,0,0,0,0,Act1
7.9676,1.2505,1.0059,1,0,13.26,0,12.473,1,1,1,1,0,0,0,0,0,0,0,0,0,0,0,1,Act1
7.9531,1.2622,1.0244,1,0,17.339,0,13.0989,0,1,1,1,0,0,0,0,0,0,0,0,0,0,0,1,Act1
8.0432,1.1523,1.0891,1,0,9.7764,0,11.0008,0,1,1,1,0,0,0,0,0,0,0,0,0,0,0,0,Act-1
7.8978,1.1212,1.0222,1,0,9.8519,0,12.3917,0,1,1,1,0,0,0,0,0,0,0,0,0,0,0,0,Act1
7.9731,1.2759,0.9956,1,0,17.1211,0,11.7139,0,1,1,1,0,0,0,0,0,0,0,0,0,0,0,1,Act-1
7.9389,1.1273,1.0619,1,0,9.8513,0,11.7523,0,1,1,1,0,0,0,0,0,0,0,0,0,1,0,0,Act1
7.9375,1.1914,0.8975,1,0,15.7434,0,12.0589,0,1,1,1,2,0,0,0,0,0,0,0,1,0,0,1,Act-1
7.9913,1.2223,1.0429,0,0,6.8362,0,7.1543,0,1,1,1,0,0,0,0,0,0,0,0,0,0,0,0,Act-1
8.0722,1.0317,0.8954,0,0,0,0,1,0,1,1,1,2,0,0,0,0,0,0,0,0,0,0,0,Act1
7.6096,1.1714,0.8161,0,0,10.1166,0,6.6246,1,1,0,1,0,0,0,0,0,0,0,0,1,0,0,0,Act1
7.6833,1.2647,1.0397,0,0,6.3995,0,13.5325,1,1,1,1,0,1,1,0,0,0,0,0,1,0,0,1,Act1
8.2564,1.3142,0.8981,0,0,5.8352,0,7.6983,0,1,1,1,0,0,0,0,0,0,0,0,1,0,0,0,Act1
8.2245,1.2309,0.7964,0,0,4.574,0,7.8015,1,1,1,1,0,0,0,0,0,0,0,0,0,0,0,0,Act1
7.8621,1.1607,1.0531,0,0,0,0,11.6426,0,1,1,1,1,0,0,0,0,0,0,0,0,0,0,0,Act1
7.947,1.0847,0.9424,0,0,0,0,8.9371,1,1,1,1,0,0,0,0,0,0,0,0,0,0,1,0,Act-1
7.7105,1.2067,0.8613,0,0,5.3183,0,8.9745,1,1,1,1,0,0,0,0,0,0,0,0,0,0,1,0,Act1
7.9444,1.4198,0.8347,0,0,6.7236,0,8.2457,1,1,1,1,0,0,0,0,0,1,0,0,1,1,0,1,Act1
8.1348,1.3829,1.0214,0,0,9.1225,2,12.4312,0,1,1,1,0,0,0,0,0,0,0,0,0,0,1,1,Act-1
7.6012,1.3946,1.0243,0,0,9.7237,0,11.1281,0,1,1,1,0,0,0,0,0,1,0,0,1,1,0,1,Act1
7.7762,1.3971,1.0164,0,0,22.672,0,11.3742,0,1,1,1,0,0,0,0,0,0,0,0,1,1,0,1,Act1
7.8125,1.3845,1.0069,0,0,20.1464,0,11.5725,1,1,1,1,0,0,0,0,0,0,0,0,1,1,0,1,Act1
7.8704,1.3851,0.9254,0,0,17.8485,0,11.2425,0,1,1,1,1,0,0,0,0,0,0,0,1,1,0,1,Act1
7.756,1.4266,0.9858,0,1,14.5965,0,10.8872,1,1,1,1,0,0,0,0,0,0,0,0,1,0,0,1,Act1
7.8667,1.3092,0.8814,0,0,8.4778,0,13.6154,1,1,1,1,1,0,0,0,0,0,0,0,0,1,0,1,Act1
7.484,1.3008,1.0822,0,0,8.5387,0,8.2518,0,1,1,1,0,0,0,0,0,0,0,0,0,0,0,1,Act-1
7.8654,1.441,0.8805,0,0,12.9415,0,8.004,1,1,1,1,0,0,0,0,0,0,0,0,1,0,0,1,Act1
8.0028,1.5375,0.8819,0,1,19.6029,0,11.3502,1,1,1,1,0,0,0,0,0,1,0,0,1,0,0,1,Act1
7.8583,1.2664,1.034,0,0,3.8354,0,8.3557,0,1,1,1,0,0,0,0,0,0,0,0,0,0,0,0,Act1
8.1694,1.4398,1.0564,0,0,11.741,0,13.349,1,1,1,1,0,0,0,0,0,0,0,0,0,1,0,1,Act1
8.0278,1.3409,1.1245,0,0,8.4029,0,8.3805,1,1,1,1,0,0,0,0,0,0,0,0,1,1,1,1,Act1
8.0227,1.3455,1.1297,0,0,10.5255,0,8.8294,0,1,1,1,0,0,0,0,0,0,0,0,1,1,1,1,Act1
8.2335,1.3973,1.0529,0,0,10.4446,1,15.5429,1,1,1,1,1,1,1,0,0,0,0,1,0,1,0,1,Act-1
8.1348,1.3829,1.0214,0,0,9.1225,2,12.4312,0,1,1,1,0,0,0,0,0,0,0,0,0,0,1,1,Act-1
8.0833,1.2661,0.9602,0,0,6.6381,0,5.4273,0,1,0,0,0,0,0,0,0,0,0,0,0,0,1,0,Act1
7.8413,1.2006,1.1277,0,0,6.7676,0,9.9805,0,1,1,1,0,0,0,0,0,0,0,0,0,0,0,0,Act-1
8.25,1.2661,0.759,0,0,5.9436,0,5.4273,0,1,1,0,0,0,0,0,0,0,0,0,0,0,0,0,Act1
8.2133,1.1726,1.2285,0,0,6.516,0,5.4273,0,1,1,1,0,0,0,0,0,0,0,0,0,0,0,0,Act-1
8.0833,1.2676,0.6647,0,0,6.7189,0,5.9528,1,1,0,0,0,0,0,0,0,0,0,0,0,0,1,0,Act-1
8.1667,1.2692,0.5732,0,0,6.4429,0,7.0392,0,1,1,1,0,0,0,0,0,0,0,0,0,0,0,0,Act-1
8.0645,1.1634,0.901,0,0,4.7034,0,12.6155,1,1,1,1,0,0,0,0,1,0,0,0,0,0,0,0,Act1
7.862,1.2927,0.9313,0,0,17.5193,0,15.8528,1,1,1,1,0,0,0,0,1,0,0,0,1,0,0,1,Act1
7.9474,1.1484,0.868,0,0,6.9526,0,12.5317,1,1,1,1,0,0,0,0,1,0,0,0,0,0,0,0,Act1
7.9148,1.1426,0.8675,0,0,6.9777,0,12.2765,1,1,1,1,0,0,0,0,1,0,0,0,0,0,0,0,Act1
8.1801,1.1401,0.8652,0,0,2.8735,0,11.5689,1,1,1,1,0,0,0,0,1,0,0,0,0,0,0,0,Act1
7.8133,1.2944,0.9733,0,1,5.7185,0,10.6575,1,1,1,1,0,0,0,0,1,1,0,0,0,1,0,1,Act1
7.6413,1.2997,0.9051,0,0,10.278,0,12.1732,1,1,0,1,0,0,0,0,0,0,0,0,1,0,0,1,Act1
7.859,1.3522,1.2043,0,0,4.7054,0,10.5347,1,1,1,1,0,0,0,0,0,0,0,0,0,0,0,1,Act-1
7.7963,1.3506,0.8223,0,1,13.1771,0,7.2163,0,1,1,1,0,0,0,0,0,0,0,0,0,0,0,1,Act-1
7.9221,1.3396,0.8433,0,1,7.1984,0,6.0611,1,1,1,1,0,0,0,0,0,0,0,0,0,1,0,1,Act1
8.1894,1.3379,0.7205,0,1,5.4079,0,5,1,1,1,1,0,0,0,0,0,0,0,0,0,1,0,1,Act1
8.2091,1.0497,0.8497,0,0,0,0,3,0,1,1,1,0,0,0,0,0,0,0,0,0,0,0,0,Act1
7.7315,1.382,1.0193,0,0,18.1759,0,8.5676,0,1,1,1,0,0,0,0,0,0,0,0,1,0,0,1,Act1
7.6344,1.4021,0.9749,0,0,17.911,0,13.1387,0,1,1,1,0,0,0,0,0,1,0,0,1,1,0,1,Act1
7.9559,1.1675,0.9356,0,0,6.991,0,12.6472,1,1,1,1,0,0,0,1,0,1,0,0,0,0,1,0,Act-1
7.6979,1.4281,1.1726,0,0,21.5426,0,9.7415,0,1,1,1,1,0,0,0,0,0,0,0,1,0,0,1,Act-1
7.9653,1.3752,1.2095,0,0,14.219,0,10.7976,0,1,1,1,0,0,0,0,0,0,0,0,1,0,0,1,Act-1
7.8148,1.323,0.8231,0,0,12.1355,0,13.7629,0,1,1,1,0,1,1,0,0,0,0,0,1,0,0,1,Act-1
7.6276,1.3866,0.5813,0,0,12.2151,0,8.7908,0,1,1,1,0,0,0,0,0,0,0,0,1,0,0,1,Act-1
7.7827,1.3344,1.3211,0,0,9.237,0,11.9128,0,1,1,1,2,0,0,0,0,0,0,0,0,1,0,1,Act1
7.7222,1.3479,1.1089,0,0,15.5641,0,12.0053,1,1,1,1,1,0,0,0,0,0,0,0,0,1,0,1,Act1
8.0833,1.1243,0.6328,0,0,0,0,0,0,1,0,0,0,0,0,0,0,0,0,0,0,0,0,0,Act-1
7.7333,1.37,0.9364,0,1,12.834,0,12.7625,1,1,1,1,0,0,0,0,0,1,0,0,0,1,0,1,Act1
7.6989,1.2875,0.9855,0,1,5.9377,0,12.5558,1,1,1,1,0,0,0,0,0,1,0,0,0,1,0,1,Act1
7.8434,1.2609,1.0624,0,1,8.1264,0,6.1452,1,1,1,1,0,1,1,0,1,1,0,0,0,1,0,1,Act1
7.8611,1.161,0.6564,0,1,0,0,4.5032,1,1,1,1,0,1,1,0,1,1,0,0,0,1,0,0,Act1
8.1136,1.3462,0.9158,0,0,9.467,0,8.8058,1,1,0,1,0,0,0,0,0,1,0,0,0,1,1,1,Act1
8.0804,1.4532,0.8335,0,0,6.9074,0,9.8365,1,1,1,1,0,0,0,0,0,1,0,0,1,1,0,1,Act1
7.951,1.4043,0.774,0,0,9.2597,0,5.6502,1,1,1,1,0,0,0,0,0,1,0,0,0,1,0,1,Act1
8.0119,1.1029,0.9661,0,0,0,0,10.849,0,1,1,1,0,0,0,0,0,0,0,0,0,0,0,0,Act1
7.9957,1.1021,0.9431,0,0,0,0,9.3726,0,1,1,1,0,0,0,0,0,0,0,0,0,0,0,0,Act-1
8.1432,1.1338,1.0189,0,0,8.834,0,13.0051,1,1,1,1,1,0,0,1,0,0,0,0,0,0,1,0,Act-1
8.1909,1.3377,0.8733,0,0,12.4289,0,11.1803,1,1,1,1,0,0,0,0,0,1,0,0,0,0,0,1,Act1
8.151,1.206,1.0684,0,0,4.6346,0,11.8313,1,1,1,1,0,0,0,0,0,0,0,0,0,0,0,0,Act1
8.1379,1.2456,1.1131,0,0,1.5451,0,10.5853,1,1,1,1,1,0,0,0,0,1,0,0,0,1,1,0,Act-1
7.5171,1.3824,0.9968,0,0,31.2895,0,13.6302,1,1,1,1,0,0,0,0,0,1,0,0,1,1,0,1,Act1
7.5042,1.3782,0.9909,0,0,31.4798,0,14.4183,1,1,1,1,0,0,0,0,0,1,0,0,1,1,0,1,Act-1
7.5238,1.2407,0.974,0,0,20.1186,0,12.8636,0,1,1,1,0,0,0,0,0,0,0,0,0,0,0,1,Act1
7.7677,1.49,0.8439,0,0,19.4288,0,15.251,0,1,1,1,1,0,0,0,0,0,0,0,0,0,0,1,Act1
7.5909,1.4847,1.0158,0,0,22.3731,0,14.9923,0,1,1,1,1,0,0,0,0,0,0,0,0,0,0,1,Act1
7.5808,1.4847,0.9881,0,0,22.459,0,15.1476,0,1,1,1,1,0,0,0,0,0,0,0,0,0,0,1,Act1
7.7849,1.4169,0.9695,0,0,21.633,0,15.6478,0,1,1,1,0,0,0,0,0,0,0,0,0,0,0,1,Act1
7.7101,1.3195,0.8871,0,0,15.1155,0,11.9224,0,1,1,1,0,0,0,0,0,0,0,0,0,0,0,1,Act1
7.6556,1.422,1.0887,0,0,17.5103,0,15.3511,0,1,1,1,0,0,0,0,0,0,0,0,0,1,0,1,Act1
7.7069,1.4216,0.9325,0,0,16.6108,0,14.56,0,1,1,1,0,0,0,0,0,0,0,0,0,1,0,1,Act1
7.619,1.3857,0.8778,0,0,12.0715,0,12.403,0,1,1,1,1,0,0,0,0,0,0,0,0,0,0,1,Act1
7.6306,1.5589,0.9615,0,0,23.3308,0,14.5078,0,1,1,1,1,1,1,0,0,0,0,0,1,1,0,1,Act1
7.6176,1.5186,1.0761,0,0,21.7185,0,15.4099,0,1,1,1,0,0,0,0,0,0,0,0,0,0,0,1,Act1
7.6176,1.5186,1.0054,0,0,21.8019,0,15.3063,1,1,1,1,0,0,0,0,0,1,0,0,0,0,0,1,Act1
7.6471,1.5186,1.0557,0,0,19.2486,0,15.6654,1,1,1,1,0,0,0,0,0,0,0,0,0,1,0,1,Act1
7.6471,1.5186,1.052,0,0,19.1669,0,15.11,0,1,1,1,0,0,0,0,0,0,0,0,0,1,0,1,Act-1
7.6471,1.5186,0.9845,0,0,19.2723,0,15.2718,1,1,1,1,0,0,0,0,0,1,0,0,0,0,0,1,Act1
7.6302,1.4902,0.9173,0,0,19.52,0,13.3571,0,1,1,1,1,0,0,0,0,0,0,0,0,0,0,1,Act1
7.5294,1.3648,1.0428,0,0,12.243,0,12.3129,0,1,1,1,1,1,1,0,0,0,0,0,0,0,0,1,Act1
7.5758,1.368,1.074,0,0,12.169,0,12.3129,0,1,1,1,1,0,0,0,0,0,0,0,0,0,0,1,Act1
7.6,1.28,0.8844,0,0,8.0293,0,13.0386,0,1,1,1,1,0,0,0,0,0,0,0,0,0,0,1,Act1
7.6543,1.421,0.8877,0,0,15.832,0,13.604,0,1,1,1,0,0,0,0,0,0,0,0,0,0,0,1,Act1
7.6048,1.5184,1.1278,0,0,20.0942,0,15.187,0,1,1,1,0,0,0,0,0,0,0,0,0,0,0,1,Act1
7.6176,1.5186,1.0378,0,0,21.8892,0,15.1337,0,1,1,1,0,0,0,0,0,0,0,0,0,0,0,1,Act1
7.6313,1.518,0.9361,0,0,23.4852,0,14.8084,0,1,1,1,0,0,0,0,0,0,0,0,0,0,0,1,Act1
7.5784,1.3995,1.0339,0,0,16.1435,0,13.604,0,1,1,1,0,0,0,0,0,0,0,0,0,0,0,1,Act1
7.7179,1.422,0.9066,0,0,15.1858,0,13.604,0,1,1,1,0,0,0,0,0,0,0,0,0,0,0,1,Act1
8.0084,1.4765,1.0967,0,0,9.0065,0,10.8058,1,1,1,1,0,0,0,0,0,0,0,0,0,1,0,1,Act1
7.8111,1.5515,1.0154,0,0,17.5676,0,15.0094,1,1,1,1,0,0,0,0,0,0,0,0,0,1,0,1,Act-1
7.9531,1.2974,0.916,0,0,16.89,0,11.9793,1,1,1,1,1,0,0,0,0,0,0,0,0,0,0,1,Act1
7.6379,1.4616,0.9628,0,0,11.4886,0,9.3852,1,1,1,1,0,0,0,0,0,0,0,0,1,0,0,1,Act1
7.9147,1.2583,1.1493,0,0,3.172,0,9.9805,0,1,1,1,0,0,0,0,0,0,0,0,0,1,0,0,Act1
7.8111,1.6122,0.9324,0,1,21.3647,0,12.0296,0,1,1,1,1,0,0,0,0,1,0,0,0,0,0,1,Act1
7.6957,1.306,1.164,0,0,10.0733,1,10.0037,1,1,1,1,0,0,0,0,0,0,0,0,1,0,1,1,Act-1
7.8189,1.4149,1.2731,0,0,14.7799,0,14.1574,1,1,1,1,2,0,0,0,0,0,0,0,1,1,0,1,Act1
7.8423,1.5736,1.0794,0,0,20.0571,0,8.5538,0,1,1,1,0,0,0,0,0,0,0,0,1,1,0,1,Act1
7.7583,1.4246,1.0658,0,0,23.8617,0,14.8554,1,1,1,1,0,0,0,0,0,1,0,0,1,1,0,1,Act1
7.7366,1.3121,1.03,0,0,13.0952,0,10.8471,0,1,1,1,0,0,0,0,0,0,0,0,1,1,0,1,Act1
7.7745,1.3796,0.9461,0,0,20.651,0,11.9512,0,1,1,1,1,0,0,0,0,0,0,0,1,1,0,1,Act1
7.625,1.3982,1.0797,0,0,21.2604,0,13.9496,1,1,1,1,1,0,0,0,0,0,0,0,0,0,0,1,Act-1
7.7333,1.3953,1.1019,0,0,15.6683,0,18.2944,1,1,1,1,0,1,1,0,0,0,0,0,1,1,0,1,Act1
7.5159,1.4515,1.0675,0,1,16.2418,0,7.8233,0,1,1,1,0,0,0,0,0,0,0,0,0,1,0,1,Act1
7.7917,1.386,0.8665,0,0,10.9665,0,8.9919,1,1,1,1,0,0,0,0,0,1,0,0,1,1,0,1,Act1
7.7628,1.3959,1.0263,0,0,14.7006,0,12.4297,1,1,1,1,0,0,0,0,0,1,0,0,1,1,0,1,Act1
8.2454,1.4306,1.0812,0,0,13.0824,0,14.0044,1,1,1,1,0,0,0,0,0,0,0,0,0,1,0,1,Act1
7.9905,1.2577,0.9284,0,0,16.0637,0,13.0859,1,1,1,1,0,0,0,0,1,0,0,0,1,1,0,1,Act1
7.5967,1.2808,0.848,0,0,7.2487,0,12.3472,1,1,1,1,0,0,0,0,0,0,0,0,0,0,0,1,Act1
8.5735,1.4834,0.8642,0,0,14.0602,0,12.6589,1,1,1,1,0,0,0,0,0,0,0,0,0,1,0,1,Act1
8.5735,1.4834,0.8206,0,0,14.3437,0,12.8669,1,1,1,1,0,0,0,0,0,0,0,0,0,1,0,1,Act-1
7.8125,1.4142,0.915,0,0,15.7064,0,13.7661,0,1,1,1,0,0,0,0,0,0,0,0,1,0,0,1,Act1
7.9028,1.2604,0.8572,0,0,13.5187,0,9.4237,1,1,1,1,0,0,0,0,0,0,0,0,0,0,0,1,Act1
7.5653,1.4966,1.0035,0,1,24.2282,0,16.3808,1,1,1,1,0,0,0,0,0,1,0,0,1,1,0,1,Act1
7.8235,1.1296,0.645,0,0,0,0,0,0,1,1,0,0,0,0,0,0,0,0,0,1,1,0,0,Act-1
8.2109,1.3132,0.9397,0,0,9.2842,1,10.3656,1,1,1,1,1,0,0,0,0,0,0,1,0,1,0,1,Act-1
8.1667,1.2559,0.9957,0,0,4.7732,0,6.3053,0,1,1,1,0,0,0,0,0,0,0,0,0,0,0,0,Act1
8.1364,1.2271,0.9955,1,0,3.1763,0,8.2457,0,1,1,1,0,0,0,0,0,0,0,0,0,0,0,0,Act-1
7.8111,1.5515,1.0154,0,0,17.5676,0,15.0094,1,1,1,1,0,0,0,0,0,0,0,0,0,1,0,1,Act-1
7.5833,1.4223,0.9231,0,0,15.5537,0,10.6865,1,1,1,1,0,0,0,0,0,1,0,0,0,0,0,1,Act1
7.7368,1.208,1.0646,0,0,7.0183,0,9.2469,1,1,1,1,0,0,0,0,0,0,0,0,0,0,0,0,Act1
8.201,1.0972,1.0732,0,0,6.9245,1,18.5932,1,1,1,1,1,8,8,0,0,0,0,0,0,1,1,0,Act-1
8.0148,1.2833,1.0061,0,0,12.7283,0,8.1644,0,1,1,1,0,0,0,0,0,0,0,0,1,0,0,1,Act-1
8.0218,1.3045,1.0463,0,0,12.9411,0,8.1644,0,1,1,1,0,0,0,0,0,0,0,0,1,0,0,1,Act-1
7.5632,1.4561,0.9729,0,0,13.9608,0,11.3451,1,1,1,1,0,0,0,0,0,0,0,0,0,0,0,1,Act1
8.0208,1.2301,0.8879,0,0,7.1239,0,8.1288,1,1,1,1,0,0,0,0,0,0,0,0,0,0,0,0,Act1
7.9231,1.26,0.6059,0,0,7.2801,0,5.4273,1,1,1,1,0,0,0,0,0,0,0,0,0,0,0,0,Act-1
8.1542,1.3442,0.968,0,0,8.8754,0,8.4698,1,1,1,1,1,1,1,0,0,1,0,0,0,0,1,1,Act-1
7.4635,1.2672,0.7372,0,0,6.2178,0,6.477,1,1,1,1,0,0,0,0,0,0,0,0,0,0,0,0,Act1
8.0603,1.3183,1.0081,0,0,11.0847,0,9.9879,1,1,1,1,1,0,0,1,0,0,0,1,0,0,0,1,Act-1
8.2135,1.3809,1.0472,0,0,5.2174,1,5.4507,1,1,0,0,1,0,0,0,0,0,0,0,0,0,1,1,Act-1
7.693,1.5149,0.7684,0,0,11.3122,0,7.6527,1,1,1,1,0,0,0,0,0,0,0,0,0,1,1,1,Act-1
8.0833,1.2838,0,0,0,6.9275,0,5.4273,0,1,0,0,0,0,0,0,0,0,0,0,0,0,1,0,Act-1
7.529,1.2808,1.0352,0,0,17.9914,0,8.7017,0,1,1,1,0,0,0,0,0,0,0,0,0,0,0,1,Act1
7.9137,1.3316,0.8701,0,0,12.5724,0,11.1971,0,1,1,1,0,0,0,0,0,0,0,0,0,0,1,1,Act1
7.9363,1.593,1.0725,0,1,20.4183,0,11.7627,1,1,1,1,0,2,2,0,1,1,0,0,1,0,0,1,Act-1
7.9603,1.5801,1.0777,0,1,20.3918,0,13.6797,1,1,1,1,0,2,2,0,1,1,0,1,1,0,0,1,Act1
7.8434,1.2003,1.2091,0,0,7.125,0,7.8547,1,1,1,1,0,0,0,0,0,0,0,1,0,0,0,0,Act-1
7.6054,1.3885,0.974,1,1,16.4883,0,16.0818,1,1,1,1,0,0,0,0,0,1,0,0,1,0,0,1,Act-1
7.8889,1.299,1.1343,0,0,7.3946,0,6.8847,0,1,1,1,0,0,0,0,0,0,0,0,0,0,0,0,Act1
8.3905,1.262,0.8915,0,0,5.3904,0,5.7487,1,1,0,1,0,0,0,0,0,0,1,0,0,0,0,0,Act-1
8.4167,1.0497,0.5565,0,0,0,0,3.7798,1,1,1,1,0,0,0,0,1,0,1,0,0,0,0,0,Act-1
7.7759,1.0228,0.9574,0,0,0,0,1,1,1,0,1,1,0,0,0,0,0,1,1,0,0,0,0,Act1
7.9811,1.2657,0.8736,0,0,5.0519,0,9.8365,0,1,1,1,0,0,0,0,0,0,1,0,0,0,0,0,Act1
8.0807,1.0751,1.1471,0,0,0,0,5.5595,0,1,1,1,0,0,0,0,0,0,0,0,0,0,0,0,Act1
8.7778,1.3682,1.1553,0,0,6.5543,0,6.8847,0,1,1,1,0,0,0,0,0,0,0,0,1,1,0,1,Act1
8.0158,1.4153,0.9992,0,0,18.0105,0,9.1576,1,1,1,1,0,0,0,0,0,0,0,0,0,1,0,1,Act-1
8.6094,1.2556,0.7479,0,1,1.1328,0,1,0,1,1,0,1,0,0,0,0,1,0,0,0,1,0,0,Act-1
7.9936,1.4233,1.2547,0,0,8.6787,0,8.7055,1,1,1,1,0,2,2,1,0,1,0,0,1,1,0,1,Act1
7.2778,1.3142,1.1678,0,0,15.8283,0,8.5056,0,1,0,1,1,0,0,0,0,0,0,0,0,1,0,1,Act1
8.2222,1,0,0,0,0,0,2.8717,0,0,0,0,0,0,0,0,0,0,0,0,0,0,0,0,Act1
8.6019,1.2314,1.0384,0,0,5.4539,0,5.681,0,1,1,1,0,0,0,0,0,0,0,0,0,0,0,0,Act-1
8.0764,1.4001,0.8109,0,0,5.1341,0,3.7044,0,1,0,0,0,0,0,0,0,1,0,0,1,1,1,1,Act-1
7.8722,1.215,1.1063,0,0,3.0874,0,7.5854,1,1,1,1,0,1,1,0,0,0,0,0,0,0,1,0,Act-1
7.6528,1.3374,1.004,0,0,3.7127,0,3,0,1,0,0,0,0,0,0,0,0,0,0,0,1,0,1,Act-1
8.7418,1.2681,0.2799,0,0,2.1493,0,1.8899,0,0,1,0,1,0,0,0,0,0,0,0,0,1,1,0,Act-1
8.4327,1.2053,0.931,0,0,2.5498,0,7.3385,1,1,1,1,0,0,0,0,0,0,0,0,0,0,1,0,Act-1
7.9456,1.5197,1.0531,0,0,15.7307,0,8.1184,0,1,1,1,0,0,0,0,0,0,0,0,1,1,0,1,Act-1
7.5505,1.3913,0.92,0,0,13.5531,0,7.4956,0,1,0,1,0,0,0,0,0,1,0,0,1,0,0,1,Act-1
7.4066,1.3455,0.9483,0,0,15.0708,0,6.9158,0,1,0,1,0,0,0,0,0,0,0,0,0,1,0,1,Act-1
7.9108,1.3336,0.8574,0,0,14.4989,0,7.1484,0,1,0,1,0,0,0,0,0,0,0,0,0,0,0,1,Act-1
7.7911,1.3282,0.9634,0,1,16.0175,0,8.6236,1,1,0,1,0,0,0,0,0,0,0,0,0,0,0,1,Act1
8.0644,1.4329,1.0641,1,0,11.8663,0,8.2005,1,1,1,1,0,0,0,0,0,0,0,0,0,0,0,1,Act-1
7.4324,1.2569,1.0397,0,0,18.3873,0,10.6625,0,1,0,1,0,0,0,0,0,0,0,0,0,0,0,1,Act1
7.9306,1.2669,0.9586,0,0,13.0871,0,13.0596,1,1,1,1,0,0,0,0,0,0,0,0,1,0,0,1,Act-1
7.5905,1.3139,1.0413,0,0,15.6678,0,9.2866,0,1,1,1,0,0,0,0,0,0,0,0,1,1,0,1,Act-1
7.6333,1.3197,0.9673,0,1,19.2405,0,10.2706,0,1,0,1,1,0,0,0,0,0,0,0,0,0,0,1,Act-1
7.3722,1.1663,0.9731,0,0,8.1013,0,12.6422,0,1,1,1,0,0,0,0,0,0,0,0,0,0,0,0,Act-1
7.7292,1.3233,1.0134,0,1,18.4028,0,9.5922,1,1,0,1,0,0,0,0,0,0,0,0,0,0,0,1,Act-1
7.6597,1.3233,0.9588,0,1,19.1616,0,9.3928,0,1,0,1,1,0,0,0,0,0,0,0,0,0,0,1,Act1
7.5505,1.3913,0.92,0,0,13.5531,0,7.4956,0,1,0,1,0,0,0,0,0,1,0,0,1,0,0,1,Act1
7.4217,1.3904,0.6177,0,0,12.5114,0,6.4912,0,1,0,0,0,0,0,0,0,0,0,0,1,0,0,1,Act1
7.4418,1.3515,1.0261,0,0,14.7669,0,6.9909,0,1,0,1,1,0,0,0,0,0,0,0,0,1,0,1,Act-1
7.4596,1.3592,0.8927,0,0,9.7413,0,10.6523,0,1,0,1,0,1,1,0,0,0,0,0,0,1,0,1,Act-1
7.6135,1.354,0.8947,0,0,9.6256,0,10.0946,0,1,1,1,0,1,1,0,0,0,0,0,0,1,0,1,Act-1
7.7049,1.3765,0.9992,0,0,3.666,0,3,0,1,0,0,0,0,0,0,0,0,0,0,0,1,0,1,Act1
7.4918,1.3125,0.9948,0,0,14.8278,0,6.9909,0,1,1,1,1,0,0,0,0,0,0,0,0,1,0,1,Act-1
7.6035,1.4379,1.0498,0,2,21.4254,0,6.5133,0,1,0,1,0,0,0,0,0,0,0,0,0,0,0,1,Act-1
7.5411,1.3456,0.7636,0,1,34.4744,0,7.2144,0,1,0,1,0,0,0,0,0,0,0,0,0,0,0,1,Act1
7.3987,1.3146,0.9309,0,0,12.6653,0,7.8384,0,1,0,1,0,0,0,0,0,0,0,1,0,0,0,1,Act-1
7.4183,1.3146,0.9254,0,0,12.5744,0,7.8384,0,1,0,1,0,0,0,0,0,0,0,0,0,0,0,1,Act1
7.6815,1.5343,0.8784,0,1,16.3084,0,12.2313,0,1,1,1,0,2,2,0,0,1,0,0,1,1,0,1,Act-1
7.6667,1.2383,0.9273,0,0,8.73,0,12.1746,1,1,1,1,0,0,0,0,0,0,0,0,0,0,0,1,Act1
7.6667,1.2383,0.9273,0,0,8.73,0,12.1746,1,1,1,1,0,0,0,0,0,0,0,0,0,0,0,1,Act-1
8.209,1.3102,1.0707,0,0,10.8062,0,6.8255,1,1,1,1,0,0,0,0,0,0,0,0,0,0,0,1,Act-1
7.7402,1.2182,0.8734,0,0,20.1869,0,12.9772,0,1,1,1,0,0,0,0,0,0,0,0,0,0,0,1,Act1
8.4525,1.208,1.3978,0,0,0,0,2,1,1,1,1,0,0,0,0,0,0,0,0,0,0,0,0,Act-1
7.94,1.2821,1.0222,0,0,2.024,0,4.5606,0,1,1,1,0,0,0,0,0,0,0,1,0,0,0,0,Act-1
8.2308,1.2974,0.3876,0,1,1.3374,0,0,1,1,1,0,0,0,0,0,0,1,0,0,0,1,1,0,Act-1
8.3411,1.2422,1.0492,1,0,4.1299,2,14.4092,1,1,1,1,0,0,0,0,0,0,0,0,0,0,1,0,Act-1
8.5152,1.2563,0.9299,0,0,3.9347,1,7.3909,1,1,1,1,0,0,0,0,0,0,0,0,0,0,1,0,Act-1
8.4271,1.2581,0.939,0,0,4.1752,0,7.2972,1,1,1,1,0,0,0,0,0,0,0,0,0,0,1,0,Act-1
7.5977,1.3947,0.9521,0,0,15.6984,0,11.8057,1,1,1,1,0,1,1,0,0,0,0,0,1,1,0,1,Act1
8.2595,1.2561,0.9366,0,0,3.0902,0,7.248,1,1,1,1,0,1,1,0,0,0,0,0,0,0,1,0,Act-1
8.3704,1.0821,0,0,0,0,0,0,0,0,0,0,0,0,0,0,0,0,0,0,0,1,1,0,Act-1
8.0526,1.3106,1.2625,0,0,7.0003,0,4.1689,0,1,1,1,0,1,1,0,0,0,0,0,1,0,1,0,Act1
7.8386,1.4621,1.0264,0,1,12.7249,0,8.2614,0,1,1,1,0,0,0,0,0,1,0,0,1,1,0,1,Act1
7.904,1.4623,0.7335,0,1,10.1206,0,3.5541,0,1,1,1,0,0,0,0,0,1,0,0,1,1,0,1,Act1
8.0799,1.4713,0.8755,0,1,11.2866,0,2.8717,0,1,1,1,0,0,0,0,0,1,0,0,1,1,0,1,Act1
7.5978,1.2997,1.2396,0,0,10.3243,0,9.621,1,1,0,1,0,0,0,0,0,0,0,0,1,0,0,1,Act1
8.1839,1.3381,0.8986,0,0,12.7132,0,8.0026,1,1,1,1,0,0,0,0,0,0,0,0,0,0,1,1,Act-1
7.5734,1.1527,0.8155,0,0,5.8561,0,8.7443,0,1,1,1,0,1,1,0,1,0,0,0,1,0,0,0,Act1
8.0353,1.2092,1.0291,0,0,4.5169,0,5.1591,0,1,1,1,0,0,0,0,0,0,0,0,0,0,0,0,Act-1
7.9487,1.2547,1.4254,0,0,7.1608,0,1,1,1,0,0,0,0,0,0,0,0,0,1,0,0,0,0,Act-1
7.8125,1.2361,0.4595,0,0,7.5477,0,2.7495,0,1,1,1,0,0,0,0,0,0,0,1,0,0,0,0,Act-1
7.7273,1.0648,0,0,0,0,0,0,0,1,0,0,0,0,0,0,0,0,0,0,0,1,0,0,Act1
7.6944,1.0585,1.2513,0,0,0,0,0,0,0,0,0,2,0,0,0,0,0,0,0,0,0,0,0,Act1
7.8954,1.4458,1.0825,0,0,9.2405,0,10.859,1,1,1,1,0,0,0,0,0,1,0,0,0,1,0,1,Act1
7.6381,1.4342,0.9803,0,0,20.4258,0,9.834,1,1,1,1,0,0,0,0,0,0,0,0,0,0,0,1,Act1
7.9896,1.3725,0.3661,0,0,3.5502,0,1.8899,1,1,1,0,2,0,0,0,0,0,0,0,0,1,1,1,Act1
7.58,1.5314,1.2921,0,0,16.0563,0,9.0469,1,1,1,1,1,1,1,0,0,1,0,0,1,1,0,1,Act1
7.4286,1.4013,0.8954,0,0,23.0526,0,11.6553,0,1,0,1,0,1,1,0,0,1,0,0,0,1,0,1,Act1
7.6944,1.3399,1.2577,0,0,11.8903,1,8.976,1,1,1,1,0,1,1,0,0,1,0,0,1,1,1,1,Act1
7.5309,1.4084,0.9017,0,0,18.2185,0,10.59,0,1,1,1,0,0,0,0,0,1,0,0,1,0,0,1,Act1
7.5679,1.4084,0.8345,0,0,15.6526,0,7.9152,0,1,1,1,0,0,0,0,0,1,0,0,1,0,0,1,Act1
7.5267,1.4107,0.8112,0,0,17.8008,0,9.5657,0,1,1,1,0,0,0,0,0,1,0,0,1,0,0,1,Act1
7.42,1.3687,1.1457,0,1,14.3872,0,8.976,0,1,0,1,0,0,0,0,0,1,0,0,1,0,0,1,Act1
7.6944,1.3399,1.1746,0,0,11.9896,2,8.4485,1,1,0,1,0,0,0,0,0,0,0,0,1,1,1,1,Act1
7.9133,1.3352,1.43,0,0,8.7763,2,7.09,1,1,0,1,0,0,0,0,0,0,0,0,1,1,1,1,Act1
7.7361,1.3399,1.323,0,0,9.6218,2,7.09,1,1,0,1,0,1,1,0,0,1,0,0,1,1,1,1,Act1
7.9133,1.3341,1.2232,0,0,8.9978,1,7.09,1,1,1,1,0,1,1,0,0,1,0,0,1,1,1,1,Act1
7.6957,1.3095,1.1215,0,0,8.2682,1,8.976,1,1,0,1,0,0,0,0,0,0,0,0,1,1,1,1,Act1
7.7937,1.3915,0.9687,0,0,21.2544,0,13.0909,1,1,1,1,0,0,0,0,0,1,0,0,0,0,1,1,Act-1
7.9464,1.558,1.1478,0,0,16.5819,0,7.1153,0,1,0,1,0,0,0,0,0,1,0,0,1,1,0,1,Act1
8.4529,1.2605,0.9698,0,0,2.4931,0,7.3385,1,1,1,1,0,0,0,0,0,0,0,0,0,0,1,0,Act-1
8.2063,1.2446,1.0632,0,0,1.5601,0,12.6616,1,1,1,1,0,0,0,0,0,0,0,0,0,1,1,0,Act-1
8.2412,1.4783,1.0353,0,0,11.5668,0,6.8064,0,1,1,1,0,0,0,0,0,0,1,1,0,0,0,1,Act-1
7.4167,1.375,1.2001,0,0,17.5639,0,5.8175,0,1,0,1,0,0,0,0,0,0,0,1,0,0,0,1,Act1
8.2753,1.2588,0.8481,0,0,3.0692,0,7.312,1,1,1,1,0,0,0,0,0,0,0,0,0,0,1,0,Act-1
7.4417,1.504,1.1968,0,0,12.828,0,5.8436,0,1,0,1,1,0,0,0,0,0,0,1,0,0,0,1,Act1
7.5259,1.4351,1.2518,0,0,14.0671,0,8.3705,1,1,1,1,0,0,0,0,0,0,0,0,1,1,0,1,Act1
7.6333,1.229,0,0,0,0,0,0,0,1,0,0,0,0,0,0,0,0,0,0,0,1,0,0,Act-1
8.0764,1.3077,1.0739,0,0,5.1094,0,6.5886,0,1,1,1,0,0,0,0,0,0,0,0,1,1,0,1,Act1
8.6667,1.0558,0,1,0,0,0,0,0,0,0,0,0,0,0,0,0,0,0,0,0,0,0,0,Act-1
7.6535,1.1715,0.7235,0,0,7.3061,0,6.4179,0,1,1,1,0,0,0,0,0,0,0,0,0,0,0,0,Act-1
7.4497,1.4034,1.0652,0,0,14.7798,0,6.5196,0,1,0,1,0,0,0,0,0,0,0,0,0,0,0,1,Act1
7.7467,1.3867,1.156,1,0,13.9179,0,6.8445,0,1,1,1,0,0,0,0,0,0,0,0,0,0,0,1,Act-1
7.4206,1.401,1.0601,0,0,16.8547,0,6.4166,0,1,0,1,0,0,0,0,0,0,0,0,0,0,0,1,Act1
7.3413,1.401,0.9645,0,0,17.5987,0,6.2637,0,1,0,1,0,0,0,0,0,0,0,0,0,0,0,1,Act-1
7.5234,1.3262,0.9619,0,0,16.0256,0,7.3108,0,1,0,1,0,0,0,0,0,0,0,0,0,0,0,1,Act1
7.4167,1.2629,0,0,0,10.4552,0,2.8717,0,1,0,0,0,0,0,0,0,0,0,0,0,0,0,0,Act-1
7.4008,1.2563,0.8426,0,0,21.3391,0,6.832,0,1,0,1,0,0,0,0,0,0,0,0,1,0,0,1,Act1
8.1354,1.233,1.0385,0,0,4.2728,0,3.7204,0,1,1,1,0,0,0,0,0,0,0,0,0,0,0,0,Act1
7.6681,1.3215,0.9473,0,0,17.2078,0,7.0059,0,1,0,1,0,0,0,0,0,0,0,0,0,0,0,1,Act-1
7.373,1.4823,1.0065,0,0,17.3011,0,6.0594,0,1,0,1,0,0,0,0,0,0,0,0,0,0,0,1,Act1
7.6508,1.3198,0.9381,0,0,8.5419,0,4.5611,0,1,1,1,0,1,1,0,0,0,0,0,0,0,0,1,Act1
7.4833,1.4173,0.814,0,0,11.9529,0,4.3952,0,1,0,1,0,1,1,0,0,0,0,0,0,1,0,1,Act-1
7.8472,1.3129,1.0916,0,0,10.2455,0,8.7024,1,1,1,1,0,0,0,0,0,0,0,0,1,1,0,1,Act1
7.6989,1.5174,1.0487,0,0,19.6908,0,10.101,1,1,1,1,0,1,1,0,0,0,0,0,1,1,0,1,Act1
7.6111,1.3467,1.0218,0,0,11.546,0,6.4227,1,1,1,1,1,0,0,0,0,0,0,0,0,1,0,1,Act-1
7.35,1.3571,1.0086,0,0,17.4025,0,6.4522,0,1,0,1,1,0,0,0,0,0,0,0,0,1,0,1,Act1
7.8011,1.5292,1.2166,0,1,19.0785,0,8.3093,1,1,0,1,0,0,0,0,0,1,0,0,1,1,0,1,Act1
7.4259,1.2844,1.157,0,0,14.324,0,5.6788,0,1,0,1,1,0,0,0,0,1,0,0,0,0,0,1,Act1
7.4259,1.2844,1.0932,0,0,14.4208,0,6.4498,0,1,0,1,0,0,0,0,0,1,0,0,0,0,0,1,Act-1
7.8143,1.2347,1.2127,1,0,1.6857,0,8.7055,1,1,1,1,3,4,4,1,0,0,0,0,0,1,1,1,Act-1
7.9127,1.361,1.0591,0,0,8.8974,1,4.1053,1,1,0,1,0,0,0,0,0,0,0,0,0,0,1,1,Act1
7.6061,1.3614,0.8681,0,0,15.8777,0,6.5216,1,1,0,1,0,0,0,0,0,0,0,0,0,1,0,1,Act1
7.481,1.4018,1.0528,0,0,31.5383,0,10.5381,0,1,0,1,0,0,0,0,0,1,0,0,1,1,0,1,Act1
8.0441,1.2347,1.1774,1,0,1.6857,0,8.7055,1,1,1,1,3,4,4,1,0,0,0,0,0,1,1,1,Act-1
7.6739,1.4476,0.9254,0,0,15.5671,0,7.0516,1,1,1,1,0,0,0,0,0,0,0,0,1,1,0,1,Act1
7.7579,1.165,0.9069,0,0,9.5004,0,6.3731,1,1,0,1,0,0,0,0,0,0,0,0,0,0,0,0,Act1
7.9477,1.2139,0.7494,0,0,6.8129,0,2.8717,1,1,1,1,0,0,0,0,0,0,0,0,0,0,0,0,Act-1
7.5042,1.3079,0.8389,0,0,18.0105,0,7.1774,0,1,0,1,0,0,0,0,0,0,0,0,0,0,0,1,Act-1
7.5972,1.3152,1.0048,0,0,15.3653,0,7.8447,0,1,0,1,0,0,0,0,0,0,0,0,0,0,0,1,Act1
7.4866,1.3813,0.9652,0,0,29.436,0,7.6207,0,1,1,1,0,0,0,0,0,0,0,0,0,0,0,1,Act-1
7.4474,1.3783,1.2339,0,0,18.7722,0,6.9015,0,1,1,1,0,0,0,0,0,0,0,0,0,0,0,1,Act1
8.1792,1.335,0.8337,0,0,11.1165,0,6.4498,1,1,1,1,0,0,0,0,0,0,0,0,0,0,0,1,Act1
8.303,1.3144,0.7466,0,0,10.644,0,8.0026,0,1,1,1,0,1,1,0,0,0,0,0,1,0,0,1,Act-1
7.4205,1.5084,0.5675,0,0,15.0726,0,11.826,0,1,0,1,0,0,0,0,0,0,0,0,0,0,0,1,Act1
7.3939,1.5572,0.8073,0,0,25.5661,0,11.1601,0,1,0,1,0,0,0,0,0,0,0,0,0,0,0,1,Act1
8.3414,1.5336,1.0021,0,1,15.6679,0,7.6923,0,1,1,1,0,1,1,0,0,1,0,0,1,1,0,1,Act1
7.6867,1.4158,1.0307,0,0,17.3394,0,10.3071,1,1,1,1,1,0,0,0,0,0,0,0,0,0,0,1,Act1
7.936,1.4204,0.9433,0,0,23.0752,0,12.7033,1,1,1,1,0,0,0,0,0,0,0,0,0,0,0,1,Act1
7.7971,1.243,1.013,0,0,9.4911,0,10.065,1,1,1,1,1,0,0,0,0,0,0,0,0,1,0,0,Act1
7.9409,1.485,1.0303,0,0,20.3037,0,15.2073,1,1,1,1,1,1,1,0,0,0,0,0,0,0,0,1,Act-1
7.75,1.4572,0.7952,0,1,14.7554,0,8.5833,0,1,1,1,0,0,0,0,0,0,0,0,1,1,0,1,Act1
7.8254,1.3234,0.8452,0,0,14.4134,0,8.136,0,1,1,1,0,0,0,0,0,0,0,0,0,1,0,1,Act-1
8.4103,1.1974,1.5462,0,0,0,0,3.5446,1,1,1,1,0,0,0,0,0,0,0,0,0,0,0,0,Act-1
7.9907,1.399,0.8277,0,0,15.0426,0,9.8365,1,1,1,1,1,0,0,0,0,0,0,1,0,0,0,1,Act1
7.5673,1.196,0.8596,0,0,8.309,0,10.3916,0,1,1,1,0,1,1,0,0,0,0,0,0,0,0,0,Act1
7.4881,1.4064,1.1258,0,0,25.3564,0,13.603,1,1,1,1,0,0,0,0,0,0,0,0,0,0,0,1,Act1
7.8194,1.4584,0.886,0,0,10.1878,0,8.3199,1,1,1,1,4,1,1,0,0,1,0,0,1,1,0,1,Act1
8.055,1.5792,0.9555,0,0,36.8912,0,19.0214,1,1,1,1,0,0,0,0,0,0,0,0,1,0,0,1,Act1
7.625,1.2404,0.8031,0,0,15.378,0,15.5595,0,1,1,1,0,0,0,0,0,0,0,1,0,0,0,1,Act-1
7.7778,1,0,0,0,0,0,1,0,0,0,0,0,0,0,0,0,0,0,0,0,0,0,0,Act-1
7.523,1.3745,1.1976,0,1,8.3569,0,10.0881,1,1,1,1,1,1,1,0,0,0,0,0,0,1,0,1,Act1
7.86,1.3162,0.8743,0,0,15.1808,0,10.7634,1,1,1,1,0,0,0,0,0,1,0,0,0,0,0,1,Act-1
8.0862,1.3356,0.9892,0,0,14.0709,0,7.4599,1,1,1,1,0,0,0,0,0,0,0,0,0,0,0,1,Act-1
8.8796,1.0305,0.6473,0,0,0,0,0,1,1,1,1,0,0,0,0,1,0,0,0,0,0,0,0,Act-1
7.9286,1.2196,1.1039,0,0,4.0183,0,3,0,1,1,1,1,1,1,0,0,1,0,1,0,0,0,0,Act-1
7.9444,1.2196,1.0748,0,0,3.9841,0,3,0,1,1,1,1,1,1,0,0,1,0,0,0,0,0,0,Act1
8.3611,1.005,1.0487,0,0,0,4,1,1,1,1,1,0,1,1,0,0,0,0,0,0,1,1,0,Act-1
8.2342,1,1.0517,0,0,0,3,1,1,1,1,1,0,1,1,0,0,0,0,0,0,1,1,0,Act-1
8.4813,1.0169,0.9659,0,0,0,3,0,1,1,1,1,0,1,1,0,0,0,0,0,0,1,1,0,Act-1
8.4437,1.0121,0.9879,0,0,0,3,0,1,1,1,1,0,1,1,0,0,0,0,0,0,1,1,0,Act-1
7.713,1.3287,0.7396,0,0,5.6343,0,5.5861,0,1,1,1,0,0,0,0,0,0,0,0,0,0,1,1,Act-1
8.1775,1.0125,0.7603,0,0,0,0,1,1,1,1,1,0,0,0,0,0,0,0,0,0,1,0,0,Act-1
8.1437,1.5633,1.1114,1,0,22.074,0,17.2121,1,1,1,1,0,6,6,0,0,0,0,0,0,1,0,1,Act-1
7.808,1.2978,0.8958,0,0,5.4427,0,6.3233,0,1,0,1,0,1,1,0,0,1,0,1,0,1,0,1,Act1
7.6374,1.3589,0.6336,0,0,11.5646,0,6.5886,0,1,0,1,0,0,0,0,0,1,0,0,1,1,0,1,Act1
7.529,1.2732,1.1364,0,0,7.9071,0,9.6086,0,1,1,1,0,0,0,0,0,0,0,0,0,1,0,1,Act-1
7.9921,1.1562,1.1612,1,0,8.7254,0,8.1647,0,1,1,1,0,0,0,0,0,0,0,0,0,0,0,0,Act-1
7.7576,1.1736,1.0062,0,0,7.2558,0,7.6592,0,1,1,1,0,0,0,0,1,0,0,0,0,1,0,0,Act-1
7.7583,1.1494,1.0347,0,0,8.9524,0,8.1647,0,1,1,1,0,0,0,0,0,0,0,0,0,0,0,0,Act-1
7.3333,1.2095,1.1093,0,0,21.2852,0,8.4101,0,1,0,1,0,0,0,0,0,0,0,0,0,0,0,1,Act1
8.3095,1.4041,0,0,1,4.4916,0,3,1,0,0,0,0,0,0,0,0,0,0,1,0,1,0,1,Act-1
8.0952,1.3805,0.9809,0,0,9.9896,0,7.5004,1,1,1,1,0,0,0,0,0,1,0,0,1,1,0,1,Act1
8.2532,1.5269,0.9262,0,0,8.4205,0,5.9306,0,1,0,1,2,0,0,0,0,0,0,0,1,1,0,1,Act1
7.6932,1.5386,1.0521,0,0,11.394,0,6.1296,0,1,0,1,2,0,0,0,0,0,0,0,1,1,0,1,Act1
7.8623,1.5386,1.05,0,0,9.9752,0,5.9047,0,1,0,1,2,0,0,0,0,0,0,0,1,1,0,1,Act1
7.6597,1.5347,1.1888,0,0,11.617,0,5.9047,0,1,0,1,2,0,0,0,0,0,0,0,1,1,0,1,Act1
7.9327,1.5501,1.1087,0,0,10.3276,0,5.9047,0,1,1,1,2,0,0,0,0,0,0,0,1,1,0,1,Act1
7.6341,1.5371,1.0981,0,0,11.9125,0,6.2882,0,1,0,1,2,0,0,0,0,0,0,0,1,1,0,1,Act1
7.7847,1.5594,1.1709,0,0,11.0913,0,5.9306,0,1,0,1,2,2,2,0,0,0,0,0,1,1,0,1,Act1
8.2532,1.523,1.4134,0,0,8.3589,0,5.9306,0,1,0,1,2,0,0,0,0,0,0,0,1,1,0,1,Act1
7.6932,1.5371,1.0758,0,0,11.3985,0,6.2882,0,1,0,1,2,0,0,0,0,0,0,0,1,1,0,1,Act1
7.8623,1.5371,1.009,0,0,9.9299,0,5.4304,0,1,0,1,2,0,0,0,0,0,0,0,1,1,0,1,Act1
7.5402,1.7035,1.151,0,0,18.8548,0,7.6843,0,1,0,1,2,0,0,0,0,0,0,0,1,1,0,1,Act1
7.5769,1.647,1.1831,0,0,18.5193,0,6.5752,0,1,0,1,2,0,0,0,0,0,0,0,1,1,0,1,Act1
7.6508,1.5141,1.0093,0,0,9.5739,0,5.5516,0,1,0,1,2,0,0,0,0,0,0,0,1,1,0,1,Act1
7.619,1.5141,1.1843,0,0,9.944,0,5.1801,0,1,0,1,2,0,0,0,0,0,0,0,1,1,0,1,Act1
7.68,1.513,1.1635,0,0,9.5596,0,5.2678,0,1,1,1,2,0,0,0,0,0,0,0,1,1,0,1,Act1
7.64,1.6153,1.1208,0,0,13.6213,0,7.5004,1,1,0,1,2,0,0,0,0,0,0,0,1,1,0,1,Act1
7.619,1.5141,1.1256,0,0,10.0229,0,5.1801,0,1,0,1,2,0,0,0,0,0,0,0,1,1,0,1,Act1
7.7083,1.4632,0.6405,0,0,5.5649,0,3.4641,0,1,0,0,2,0,0,0,0,0,0,0,0,1,0,1,Act1
8.0066,1.2322,0.4046,0,0,4.764,0,7.5825,1,1,1,1,2,2,2,1,0,0,0,1,0,1,0,1,Act-1
8.4144,1.1951,0.8875,2,0,0,1,5.1537,1,1,1,1,5,2,2,1,0,0,0,0,0,1,1,0,Act-1
8.2374,1.2388,0.926,0,0,8.3493,0,9.8554,1,1,1,1,3,2,2,1,0,0,0,1,0,1,0,1,Act-1
8.2043,1.2455,0.9828,0,0,8.3273,0,9.8554,1,1,1,1,3,2,2,1,0,0,0,1,0,1,0,1,Act-1
7.6029,1.4047,0.9343,0,0,15.8556,0,11.3233,1,1,1,1,2,0,0,0,0,0,0,0,0,1,0,1,Act1
7.5762,1.1693,0.806,0,0,4.2777,0,10.414,0,1,1,1,0,0,0,0,0,0,0,0,0,0,0,0,Act-1
7.8841,1.5605,1.0178,0,0,16.7236,0,15.633,1,1,1,1,0,0,0,0,0,0,0,0,1,1,0,1,Act1
8.1422,1.1365,0.6474,0,0,0,0,4.1689,0,1,1,0,0,0,0,0,1,0,0,0,1,1,0,0,Act1
7.8433,1.352,1.2571,0,0,14.8136,0,10.1618,1,1,1,1,0,0,0,0,0,0,0,0,1,1,0,1,Act1
8.256,1.2114,0,0,1,0,0,0,1,0,0,0,0,0,0,0,1,1,0,0,0,1,0,0,Act-1
8.2821,1.2185,0,0,1,1.3944,0,0,1,0,0,0,0,0,0,0,1,1,0,0,0,1,0,0,Act-1
7.8994,1.3875,0.975,0,0,17.6558,0,7.8172,1,1,1,1,0,0,0,0,0,1,0,0,1,0,0,1,Act1
8.1905,1.2129,0,0,1,1.5194,0,0,1,0,0,0,0,0,0,0,1,1,0,0,0,1,0,0,Act-1
8.3889,1.195,0.9874,0,1,1.3655,0,0,1,1,1,0,0,0,0,0,1,1,0,0,0,1,0,0,Act-1
8.0167,1.2262,0.6662,0,0,9.4582,0,4.4379,0,1,1,0,0,0,0,0,0,0,0,0,1,0,0,0,Act-1
8.0595,1.237,0.6532,0,0,9.4259,0,4.1689,0,1,1,0,0,0,0,0,0,0,0,0,1,0,0,0,Act-1
8.1667,1.2467,1.0539,0,0,3.8255,3,9.1638,0,1,1,1,0,0,0,0,1,1,0,0,1,1,1,0,Act-1
7.9667,1.2502,0.981,0,0,7.1631,3,8.9687,0,1,1,1,0,0,0,0,1,1,0,0,1,1,1,0,Act-1
8.2859,1.2252,0.4006,0,0,6.5258,0,6.0887,0,1,1,0,0,0,0,0,0,0,0,0,1,0,0,0,Act-1
7.7806,1.3795,0.8217,0,0,15.349,0,7.3411,0,1,1,1,0,0,0,0,0,0,0,0,1,1,0,1,Act-1
8.5083,1.0706,0,0,0,0,0,1,0,0,0,0,0,0,0,0,0,0,0,0,0,0,0,0,Act-1
7.7361,1.2561,0,0,0,5.6902,0,3,0,0,0,0,0,0,0,0,0,0,0,0,0,1,1,0,Act-1
8.0449,1.2819,1.1134,0,0,5.3627,0,6.5975,1,1,1,1,0,0,0,0,0,0,0,0,0,1,0,0,Act-1
7.7319,1.1771,1.0736,0,0,5.8,0,6.8775,0,1,1,1,0,0,0,0,0,0,0,0,0,1,0,0,Act-1
8.0988,1.3357,0.978,0,0,11.615,0,6.4839,0,1,1,1,0,0,0,0,1,0,0,1,1,1,0,1,Act-1
7.8261,1.3278,0.9264,0,0,10.7166,0,6.3233,1,1,1,1,0,0,0,0,0,0,0,0,0,1,0,1,Act-1
8.0882,1.2628,0.925,0,0,5.4235,0,4.7622,0,1,1,1,0,1,1,0,0,0,0,0,0,1,0,0,Act-1
7.7937,1.3328,1.0075,0,0,12.7494,0,7.5433,1,1,1,1,0,1,1,0,0,0,0,0,0,1,0,1,Act-1
8.0988,1.3455,1.049,0,0,11.6491,0,7.09,1,1,1,1,0,1,1,0,1,0,0,1,1,1,0,1,Act-1
7.9829,1.4212,0,0,1,5.3624,0,2.7495,0,0,0,0,0,0,0,0,0,1,0,0,0,0,0,1,Act-1
8.3007,1.3889,0.9189,0,0,12.1301,0,7.7527,1,1,1,1,0,0,0,0,0,1,0,1,0,0,0,1,Act-1
8.3708,1.3492,0.9908,0,0,7.4917,0,6.3053,1,1,1,1,0,0,0,0,0,1,0,1,0,0,0,1,Act-1
8.2572,1.3889,0.9373,0,0,12.3644,0,7.7527,1,1,1,1,0,0,0,0,0,1,0,0,0,0,0,1,Act1
8.3273,1.3386,1.0023,0,0,7.5957,0,6.3053,1,1,1,1,0,0,0,0,0,1,0,1,0,0,0,1,Act-1
8.2841,1.3572,0.9995,0,0,9.3516,0,5.7435,1,1,1,1,0,0,0,0,0,1,0,0,0,0,0,1,Act-1
7.8937,1.3212,1.164,1,1,6.1181,0,8.1378,0,1,1,1,0,0,0,0,0,1,0,0,0,1,0,1,Act1
8.6028,1.2457,0.8144,0,0,2.1498,0,4.7622,0,1,1,0,1,0,0,0,0,1,0,0,0,1,1,0,Act-1
8.9611,1.2218,1.3484,0,0,1.8963,0,4.7622,0,1,1,1,3,0,0,0,0,1,0,0,0,1,1,0,Act1
8.1667,1.2243,1.23,0,0,6.5112,0,6.8847,0,1,1,1,0,0,0,0,1,1,0,0,0,1,0,0,Act-1
8.0064,1.2205,1.1655,1,0,2.9769,0,5.6998,0,1,1,1,0,0,0,0,0,0,0,0,1,1,0,0,Act-1
7.7442,1.2736,1.0484,0,0,17.8836,0,15.3604,1,1,1,1,0,1,1,0,0,0,0,0,0,1,0,1,Act-1
7.7636,1.3162,1.0527,0,0,17.6916,0,15.3604,1,1,1,1,0,1,1,0,0,0,0,0,0,1,0,1,Act-1
7.4806,1.3384,0.6804,0,0,14.3599,0,7.0519,1,1,0,0,0,0,0,0,0,0,0,0,0,0,0,1,Act1
7.7173,1.3913,0.7944,0,0,9.4007,0,8.6203,1,1,1,1,0,0,0,0,1,0,0,0,1,1,0,1,Act1
7.7659,1.3913,0.7592,0,0,9.2081,0,8.6203,1,1,1,1,0,0,0,0,1,0,0,0,1,1,0,1,Act1
8.4593,1.2846,0.7188,0,0,5.5832,0,9.8347,0,1,1,1,1,0,0,0,0,0,0,0,0,1,0,1,Act1
8.0133,1.5386,1.1369,0,0,14.5857,0,7.2551,0,1,0,1,0,0,0,0,0,1,0,0,1,1,0,1,Act-1
7.7244,1.3688,0.9912,0,0,9.1072,0,5.5432,1,1,1,1,0,0,0,0,0,0,0,0,1,1,0,1,Act1
7.8081,1.5155,1.041,0,0,19.6424,0,11.1703,1,1,1,1,0,0,0,0,0,0,0,0,1,0,1,1,Act1
8.45,1.3536,1.1377,0,1,6.2641,0,3.7798,1,1,1,1,0,0,0,0,1,0,0,0,1,1,0,1,Act1
7.8727,1.4066,1.3079,0,0,12.443,0,8.916,0,1,1,1,0,0,0,0,0,0,0,0,0,0,0,1,Act-1
7.7798,1.5058,1.0363,0,0,20.4934,0,10.8999,1,1,1,1,0,1,1,0,0,0,0,0,1,1,0,1,Act1
7.8155,1.5457,1.0971,0,0,20.0605,0,10.8999,1,1,1,1,0,1,1,0,0,0,0,0,1,1,0,1,Act1
7.9167,1.4561,1.087,0,0,12.8161,0,10.9264,1,1,1,1,0,0,0,0,0,0,0,0,1,1,0,1,Act1
7.6319,1.4079,1.0502,0,0,12.764,1,9.2071,1,1,0,1,0,0,0,0,0,0,0,0,1,0,1,1,Act1
7.942,1.4816,0.9674,0,1,13.7461,0,7.09,1,1,1,1,0,0,0,0,0,0,0,0,1,1,0,1,Act-1
8.143,1.4495,0.8931,0,1,7.9775,0,7.2396,1,1,1,1,0,0,0,0,0,0,0,0,0,1,0,1,Act1
8.0631,1.3155,1.1622,0,1,7.2117,0,6.0887,1,1,1,1,0,0,0,0,1,1,0,0,0,1,0,1,Act1
8.5238,1.1217,0,0,0,0,0,0,1,0,0,0,0,0,0,0,1,1,0,0,0,1,0,0,Act-1
7.7984,1.3029,1.1296,0,1,6.3003,0,12.668,0,1,1,1,0,2,2,0,0,1,0,0,0,1,0,1,Act-1
7.6706,1.3859,0.9669,0,1,12.7086,0,9.4646,0,1,1,1,0,0,0,0,0,1,0,0,0,1,0,1,Act1
8.0313,1.3371,0.7725,0,0,6.5629,0,7.0743,0,1,1,1,0,0,0,0,0,0,0,0,0,0,0,1,Act1
7.9128,1.4359,1.0802,0,0,19.4758,0,12.9572,1,1,1,1,1,0,0,0,0,0,0,0,0,0,0,1,Act1
7.9598,1.4359,1.0804,0,0,18.942,0,12.9572,1,1,1,1,1,0,0,0,0,0,0,0,0,0,0,1,Act1
7.8889,1.406,0.9936,0,0,17.8982,0,12.2747,1,1,1,1,1,0,0,0,0,0,0,0,0,0,0,1,Act1
7.8353,1.3382,1.0135,0,0,11.9509,0,10.9687,1,1,1,1,1,0,0,0,0,0,0,0,0,0,0,1,Act1
8.0433,1.4694,1.3073,0,0,9.9578,0,3.8471,1,1,1,1,0,0,0,0,0,1,0,0,1,1,0,1,Act1
7.8556,1.4365,0.7396,0,0,9.3117,1,7.9954,1,1,1,1,1,0,0,0,0,0,0,0,0,1,1,1,Act1
7.6875,1.4325,0.751,0,0,9.6629,1,9.7441,0,1,1,1,1,0,0,0,0,0,0,0,0,1,1,1,Act1
8.0694,1.4479,1.0304,0,0,8.0785,0,7.9185,1,1,1,1,1,0,0,0,0,0,0,0,0,1,0,1,Act1
8.0156,1.4405,0.8543,0,0,8.1868,0,7.9185,1,1,1,1,1,0,0,0,0,0,0,0,0,1,0,1,Act1
7.5977,1.4974,1.0001,0,1,17.8141,0,11.5123,1,1,1,1,0,0,0,0,0,1,0,0,0,1,0,1,Act1
7.748,1.4991,1.1589,0,1,18.9193,0,13.0614,1,1,1,1,0,1,1,0,0,1,0,0,1,1,0,1,Act1
8.7292,1.2261,0.7567,0,0,0,0,3,0,1,1,1,0,0,0,0,1,0,1,1,0,0,1,0,Act-1
7.7625,1.4226,0.8926,0,0,13.3522,0,11.3868,1,1,1,1,0,0,0,0,0,0,0,0,0,0,0,1,Act1
7.6782,1.343,0.9623,0,0,16.981,0,9.8659,0,1,1,1,0,0,0,0,0,1,0,0,1,1,0,1,Act1
7.7892,1.3721,0.9048,0,0,16.3873,0,15.5189,0,1,1,1,1,0,0,0,0,0,0,0,1,1,0,1,Act1
7.9815,1.3778,0.8813,0,0,10.2549,0,5.5516,1,1,1,1,0,0,0,0,0,0,0,0,0,1,0,1,Act1
8.1133,1.3936,0.9145,0,0,13.2211,0,6.9966,0,1,1,1,0,0,0,0,0,0,0,0,0,1,0,1,Act1
8.0278,1.476,1.3222,0,0,16.568,0,9.327,1,1,1,1,0,1,1,0,1,0,0,0,1,1,0,1,Act-1
8.3081,1.2531,1.009,2,0,6.3978,0,6.3233,1,1,1,1,0,1,1,0,0,1,0,0,0,1,1,0,Act-1
7.7222,1.1445,1.051,0,0,9.376,0,8.847,0,1,1,1,0,0,0,0,0,0,0,0,0,0,0,0,Act-1
7.6358,1.1312,1.0909,0,0,11.0757,0,9.2329,0,1,1,1,0,0,0,0,0,0,0,0,0,0,0,1,Act1
7.7644,1.3747,1.0564,0,0,13.8088,0,7.5716,1,1,1,1,0,0,0,0,0,0,0,0,1,0,0,1,Act-1
7.6111,1.4011,0.9882,0,1,11.7906,0,7.2272,1,1,0,1,0,0,0,0,0,0,0,0,0,0,0,1,Act1
7.6197,1.5446,1.0019,0,0,28.1558,0,15.1461,1,1,1,1,0,1,1,0,0,0,0,0,1,1,0,1,Act-1
8.2451,1.2264,0.8969,0,0,0,0,3,1,1,1,1,0,0,0,0,0,0,0,0,0,0,1,0,Act-1
8.3627,1.2264,0.8121,0,0,0,0,3,1,1,1,1,0,0,0,0,1,0,0,0,0,0,1,0,Act-1
7.8295,1.2467,1.1924,0,0,7.3292,0,6.4474,0,1,1,1,0,0,0,0,0,0,0,0,0,0,0,0,Act-1
7.2292,1.1848,0.3543,0,0,7.5411,0,5.4917,1,1,1,0,0,0,0,0,0,0,1,0,0,0,0,1,Act-1
7.3016,1.3365,1.0066,0,0,17.5894,0,6.4233,0,1,0,1,1,0,0,0,0,0,0,0,0,1,0,1,Act1
7.7619,1.1415,0,0,0,0,0,0,0,0,0,0,0,0,0,0,0,0,0,0,0,0,0,0,Act-1
8.2649,1.324,0.9275,0,0,7.5695,0,6.3756,1,1,1,1,0,0,0,0,0,1,0,0,1,1,0,1,Act1
7.3182,1.4732,0.807,0,0,17.6148,0,6.0711,0,1,0,1,0,0,0,0,0,0,0,0,1,0,0,1,Act1
7.3182,1.3928,0.652,0,0,15.1902,0,6.123,0,1,0,1,0,0,0,0,0,0,0,0,1,0,0,1,Act1
7.8974,1.4728,1.0768,0,0,11.364,0,7.1153,0,1,0,1,0,0,0,0,0,1,0,0,1,1,0,1,Act1
7.6275,1.4526,1.1753,0,1,17.5633,0,10.5799,1,1,1,1,0,1,1,0,0,1,0,0,1,1,0,1,Act1
7.7556,1.4115,1.0449,0,0,13.4335,0,10.3762,1,1,1,1,0,0,0,0,0,0,0,0,1,1,0,1,Act1
7.6512,1.3916,0.9468,0,0,17.0878,0,11.9271,0,1,1,1,0,0,0,0,0,0,0,0,0,0,0,1,Act-1
7.4456,1.2505,1.1534,0,0,18.4519,0,9.4198,0,1,0,1,0,0,0,0,0,0,0,0,0,0,0,1,Act1
7.3083,1.3506,0.9004,0,0,19.9237,0,6.6319,0,1,0,1,0,0,0,0,0,0,0,0,1,0,0,1,Act1
7.3,1.3829,0.7104,0,0,17.8769,0,6.07,0,1,0,1,0,0,0,0,0,0,0,0,0,0,0,1,Act-1
7.6136,1.4562,1.0217,0,0,19.6383,0,10.7991,1,1,1,1,0,1,1,0,0,0,0,0,0,0,0,1,Act1
7.4762,1.4346,1.051,0,0,21.0826,0,10.7555,1,1,1,1,0,1,1,0,0,0,0,0,0,0,0,1,Act1
7.4762,1.2047,0.7724,0,0,4.248,0,2.8717,1,1,1,0,0,0,0,0,0,0,0,0,0,0,0,0,Act1
7.675,1.3362,0.7135,0,0,9.8147,0,6.0186,0,1,1,0,0,0,0,0,0,0,0,0,0,0,0,1,Act1
7.9715,1.2048,1.0173,0,0,4.3922,0,12.5747,1,1,1,1,2,3,3,0,0,1,0,0,0,1,0,1,Act-1
6.942,1.3307,1.1133,0,0,18.0078,0,7.1505,0,1,0,1,0,0,0,0,0,0,0,0,0,0,0,1,Act1
7.2576,1.3308,1.0862,0,0,18.0078,0,7.1505,0,1,0,1,0,0,0,0,0,0,0,0,0,0,0,1,Act1
7.5905,1.3139,1.0413,0,0,15.6678,0,9.2866,0,1,1,1,0,0,0,0,0,0,0,0,1,1,0,1,Act-1
7.7739,1.3795,1.1618,0,0,12.416,0,9.9681,1,1,1,1,0,1,1,0,0,0,0,0,0,1,0,1,Act-1
7.4509,1.3268,1.1445,0,0,14.9025,0,9.5554,1,1,1,1,1,0,0,0,0,0,0,0,0,1,0,1,Act-1
7.4066,1.2565,0.9428,0,0,19.1126,0,7.7416,0,1,0,1,0,0,0,0,0,0,0,0,0,1,0,1,Act1
7.4048,1.3011,1.2616,0,0,6.2712,0,6.3053,0,1,0,1,0,0,0,0,0,1,0,0,0,1,0,0,Act-1
7.6833,1.1588,1.045,0,0,9.2429,0,9.5512,1,1,1,1,0,0,0,0,0,1,0,0,0,1,0,0,Act-1
8.1282,1.232,0.9504,1,0,1.1253,0,3,1,1,1,1,0,0,0,0,0,0,0,0,1,1,0,0,Act-1
7.7692,1.3257,1.0344,0,0,12.2956,0,6.3233,1,1,1,1,0,1,1,0,0,1,0,0,0,1,0,1,Act-1
7.625,1.3749,1.2206,0,0,13.9001,0,5.9701,0,1,1,1,0,1,1,0,0,0,0,1,0,0,0,1,Act1
7.6765,1.5539,1.0771,0,0,19.2965,0,11.136,1,1,1,1,0,0,0,0,0,1,0,0,0,1,0,1,Act1
7.5885,1.5325,0.9539,0,0,23.5374,0,9.4796,1,1,1,1,0,1,1,0,0,1,0,0,1,0,0,1,Act1
8.0563,1.3389,0.9947,0,0,13.7921,0,9.6017,1,1,1,1,0,1,1,0,0,0,0,0,1,1,0,1,Act1
7.6559,1.5258,1.1559,0,0,20.261,0,7.1153,0,1,0,1,0,1,1,0,0,1,0,0,1,1,0,1,Act1
7.5104,1.5228,0.8897,0,0,21.613,0,7.1153,0,1,1,1,0,1,1,0,0,1,0,0,1,1,0,1,Act1
7.7967,1.4783,0.9427,0,0,15.0858,0,12.8808,1,1,1,1,0,2,2,0,0,1,0,0,1,1,0,1,Act1
7.7407,1.4444,0.9397,0,0,16.5626,0,12.8925,0,1,1,1,0,0,0,0,0,0,0,0,1,1,0,1,Act1
7.6071,1.3917,0.774,0,0,15.6926,0,8.9941,1,1,1,1,0,1,1,0,0,0,0,0,1,1,0,1,Act1
7.8409,1.3506,1.013,0,0,6.6846,0,3.5961,1,1,1,1,0,0,0,0,0,0,0,0,1,0,0,1,Act1
7.8281,1.5313,1.0077,0,0,16.9177,0,7.1153,0,1,0,1,0,0,0,0,0,1,0,0,1,1,0,1,Act-1
7.5771,1.4104,1.1469,0,0,15.235,0,14.1481,1,1,1,1,0,2,2,0,0,1,0,0,1,1,0,1,Act1
7.3972,1.3111,1.3438,0,0,12.0484,0,6.4522,0,1,0,1,1,0,0,0,0,0,0,0,0,1,0,1,Act1
7.9256,1.3113,1.2551,0,0,12.0484,0,6.4522,0,1,0,1,1,0,0,0,0,0,0,0,0,1,0,1,Act1
7.6194,1.3211,1.2439,0,0,13.8872,0,6.2705,1,1,1,1,1,1,1,0,0,0,0,0,0,1,0,1,Act1
7.2917,1.3244,0.9742,0,0,17.5844,0,6.4522,0,1,0,1,1,0,0,0,0,0,0,0,0,1,0,1,Act1
7.3,1.3383,0.6867,0,0,17.8769,0,6.4928,0,1,0,1,0,0,0,0,0,0,0,0,0,0,0,1,Act1
7.35,1.3383,0.7257,0,0,15.0657,0,5.9204,0,1,0,1,0,0,0,0,0,1,0,0,0,0,0,1,Act1
8.2821,1.2217,0,0,1,1.4994,0,0,1,0,0,0,0,0,0,0,1,1,0,0,0,1,0,0,Act-1
7.8468,1.2294,1.0542,0,0,19.3419,0,12.8976,1,1,1,1,0,0,0,0,0,0,0,0,0,1,1,1,Act1
8.1111,1.4135,1.1528,0,0,9.3703,0,4.6797,0,1,1,1,0,0,0,0,0,1,0,0,1,1,0,1,Act1
8.4762,1.2852,0.4661,0,1,1.1869,0,0,1,1,1,0,0,0,0,0,1,1,0,0,0,1,1,0,Act-1
8.2374,1.2388,0.926,0,0,8.3493,0,9.8554,1,1,1,1,3,2,2,1,0,0,0,1,0,1,0,1,Act-1
8.2043,1.2455,0.9828,0,0,8.3273,0,9.8554,1,1,1,1,3,2,2,1,0,0,0,1,0,1,0,1,Act-1
8.2847,1.1299,0,0,0,0,0,1,0,0,0,0,0,0,0,0,0,0,0,0,0,0,0,0,Act-1
8.3652,1.1305,1.054,1,0,5.5043,0,8.9972,1,1,1,1,1,1,1,1,0,0,0,0,0,1,1,0,Act-1
7.887,1.5237,1.0299,0,1,19.1206,0,8.5142,0,1,1,1,0,0,0,0,0,1,0,0,1,1,0,1,Act1
8.5918,1.434,1.0593,0,0,10.5293,0,11.7126,1,1,1,1,0,1,1,0,1,0,0,0,0,0,0,1,Act-1
7.6845,1.6307,0.9629,0,0,21.257,0,13.1789,0,1,1,1,0,1,1,0,0,0,0,0,0,1,0,1,Act1
7.7172,1.5051,1.1959,0,1,23.2011,0,12.8812,1,1,1,1,0,0,0,0,0,1,0,0,1,1,0,1,Act1
7.625,1.3052,1.1942,0,0,10.3029,0,9.621,1,1,0,1,0,0,0,0,0,0,0,0,1,0,0,1,Act1
8.2083,1.3827,0.9789,0,1,4.1363,1,0,1,1,1,1,0,1,1,0,0,1,0,0,1,1,1,1,Act-1
7.6049,1.3035,0.8219,0,0,16.2731,0,7.8775,0,1,1,1,0,1,1,0,1,0,0,0,1,0,0,1,Act-1
7.6625,1.1914,0.8726,0,0,5.9169,0,4.6797,1,1,1,1,0,0,0,0,0,1,0,0,0,0,0,0,Act1
7.6458,1.1914,0.9051,0,0,5.9528,0,4.6797,1,1,1,1,0,0,0,0,0,1,0,1,0,0,0,0,Act-1
8.2037,1.2411,0.7635,0,0,5.1773,0,1.8899,1,1,1,1,0,0,0,0,0,0,0,0,0,0,0,0,Act-1
7.4097,1.2378,0.4521,0,0,10.5518,0,5.3549,0,1,0,0,0,0,0,0,0,0,0,0,0,0,0,0,Act1
8,1.2321,0.5644,0,0,6.573,0,4.7785,0,1,1,0,0,0,0,0,0,0,0,0,0,0,0,0,Act-1
7.7361,1.2378,0.55,0,0,9.6658,0,5.0763,0,1,0,0,0,0,0,0,0,0,0,0,0,0,0,0,Act-1
7.1667,1,0,0,0,0,0,4.2693,0,1,0,0,0,0,0,0,0,0,0,0,0,0,0,0,Act1
7.5128,1.2443,0.6106,0,0,8.1359,0,5.1252,1,1,0,0,0,0,0,0,0,0,0,0,0,0,0,0,Act-1
7.9505,1,0.98,0,0,0,3,6,1,1,1,1,0,1,1,0,0,0,0,0,0,1,1,0,Act-1
8.2949,1.2378,0.6012,0,0,4.2619,0,2.7495,0,1,1,0,0,0,0,0,0,0,0,0,0,0,0,0,Act-1
8.0556,1.2437,0.7428,0,0,6.6279,0,2.8717,0,1,1,0,0,0,0,0,0,0,0,0,0,0,0,0,Act-1
7.1806,1,0,0,0,0,0,3.5799,0,0,0,0,0,0,0,0,0,0,0,0,0,0,0,0,Act1
7.7413,1.2139,0.4119,0,0,7.6157,0,6.3195,0,1,0,0,0,0,0,0,0,0,0,0,1,0,0,0,Act1
7.7,1.5374,1.0692,0,0,18.0716,0,6.797,0,1,0,1,0,0,0,0,0,1,0,0,1,1,0,1,Act1
7.7619,1.479,0.8931,0,0,18.044,0,5.8565,0,1,1,1,0,0,0,0,0,0,0,0,1,1,0,1,Act1
7.7619,1.5146,1.0766,0,0,17.8707,0,5.8565,0,1,1,1,0,0,0,0,0,0,0,0,1,1,0,1,Act1
7.7895,1.5141,1.1851,0,0,13.9305,0,4.3367,0,1,0,1,0,0,0,0,0,0,0,0,1,1,0,1,Act1
7.8413,1.4851,0.9882,0,0,13.7903,0,4.3367,0,1,1,1,0,0,0,0,0,0,0,0,1,1,0,1,Act1
7.7018,1.5141,1.1152,0,0,14.3409,0,5.0107,0,1,0,1,0,0,0,0,0,0,0,0,1,1,0,1,Act1
7.9633,1.4358,0.8327,0,0,5.2686,0,8.4018,1,1,1,1,0,0,0,0,0,0,0,0,0,0,0,0,Act1
7.7895,1.5225,1.0115,0,0,13.8902,0,4.3367,0,1,0,1,0,0,0,0,1,0,0,0,1,0,0,1,Act1
7.5784,1.4987,1.0212,0,0,16.1492,0,4.3367,0,1,0,1,0,0,0,0,1,0,0,0,1,0,0,1,Act-1
7.5463,1.5283,0.95,0,0,18.2802,0,5.0107,0,1,0,1,0,0,0,0,0,0,0,0,1,1,0,1,Act1
7.8041,1.3099,0.6973,0,0,7.6334,0,5.4227,0,1,1,1,1,0,0,0,0,1,0,0,1,1,0,1,Act1
8.0357,1.2305,0.9517,1,0,1.1705,0,8.0581,0,1,1,1,0,0,0,0,0,0,0,0,1,1,0,0,Act-1
7.8889,1.3634,0.7901,1,0,7.5143,0,7.9092,0,1,1,1,0,0,0,0,0,1,0,0,1,0,0,1,Act1
8.0801,1.4683,0.9947,0,0,19.1452,1,18.39,1,1,1,1,0,0,0,0,0,1,0,1,1,1,0,1,Act1
8.0267,1.2183,1.2483,0,0,4.6962,0,7.686,0,1,1,1,0,0,0,0,0,0,0,0,0,0,0,0,Act1
7.4649,1.3327,0.947,0,0,18.5608,0,8.0789,0,1,0,1,0,0,0,0,0,0,0,0,0,0,0,1,Act-1
7.4444,1.4403,1.1825,0,0,20.9301,0,8.1052,0,1,0,1,0,0,0,0,0,0,0,0,0,0,0,1,Act-1
8.0938,1.4376,0.9557,0,0,15.0596,0,8.2525,0,1,1,1,1,0,0,0,0,0,0,1,1,1,0,1,Act1
7.8333,1.4227,1.1958,0,0,11.047,0,7.0675,1,1,1,1,0,0,0,0,0,0,0,0,1,0,0,1,Act1
8.2538,1.3127,0.9504,0,0,14.4329,0,8.063,0,1,0,1,0,0,0,0,0,0,0,0,0,0,0,1,Act1
7.3417,1.402,0.9012,0,0,17.6835,0,6.0594,0,1,0,1,0,0,0,0,0,0,0,0,0,0,0,1,Act1
7.5167,1.2629,0.6402,0,0,7.8087,0,3.7798,0,1,0,0,0,0,0,0,0,0,0,0,0,1,0,0,Act-1
7.35,1.4323,0.969,0,0,17.5915,0,6.0594,0,1,0,1,0,0,0,0,0,0,0,0,0,0,0,1,Act1
7.425,1.3729,1.1306,0,0,18.8512,0,8.6379,1,1,1,1,0,0,0,0,0,0,0,0,0,0,0,1,Act-1
7.3333,1.3554,0.8783,0,0,17.6697,0,6.4497,0,1,0,1,0,0,0,0,0,0,0,0,0,1,0,1,Act1
7.8542,1.3498,0.8756,0,0,7.7586,0,4.3952,0,1,1,1,0,1,1,0,0,0,0,0,0,0,0,1,Act-1
7.7138,1.3152,1.0581,0,0,8.372,0,5.7007,0,1,1,1,0,0,0,0,0,0,0,0,1,0,0,1,Act1
7.8383,1.3063,0.9524,0,0,13.2085,0,8.7443,0,1,1,1,0,1,1,0,0,0,0,0,1,0,0,1,Act-1
7.753,1.31,0.8391,0,0,15.6839,0,7.8775,0,1,1,1,0,1,1,0,0,0,0,0,1,0,0,1,Act-1
8.36,1.1773,1.1874,0,0,1.5357,0,3,1,1,1,1,1,1,1,1,0,0,0,1,0,1,1,0,Act-1
8.1979,1.2235,1.0439,1,0,1.5362,0,6,1,1,1,1,1,2,2,1,0,1,0,0,0,1,1,1,Act-1
8.2451,1.2113,1.1448,1,0,5.9893,0,11.3679,1,1,1,1,1,1,1,1,0,0,0,0,0,1,1,1,Act-1
8.3524,1.1528,1.0496,0,0,4.3891,2,10.9782,1,1,1,1,1,1,1,1,0,0,0,0,0,0,1,0,Act-1
8.1642,1.1563,1.1595,0,0,1.5453,0,8.4564,1,1,1,1,1,1,1,1,0,0,0,0,0,1,1,0,Act-1
8.3944,1.1669,1.1574,0,0,1.5092,0,6,1,1,1,1,1,1,1,1,0,0,0,1,0,1,1,0,Act-1
8.0365,1.1468,1.0854,1,0,1.5659,0,6.5975,1,1,1,1,1,1,1,1,0,0,0,1,0,1,1,0,Act-1
8.2238,1.177,1.1216,1,0,1.5289,0,6,1,1,1,1,1,1,1,1,0,1,0,0,0,1,1,0,Act-1
8.1563,1.2165,1.1364,1,0,3.1483,0,4.7622,1,1,1,1,3,1,1,1,0,0,0,0,0,1,1,1,Act-1
8.0549,1.254,1.0768,0,0,3.2549,0,13.7735,1,1,1,1,1,1,1,1,0,0,0,0,0,1,1,1,Act1
8.3944,1.1669,1.1574,0,0,1.5092,0,6,1,1,1,1,1,1,1,1,0,0,0,1,0,1,1,0,Act-1
8.4253,1.1643,1.0595,1,0,4.402,2,6,1,1,1,1,1,1,1,1,0,0,0,0,0,0,1,0,Act-1
7.6957,1.2327,1.0332,0,0,0,0,13.7754,0,1,1,1,0,0,0,0,0,0,0,0,0,0,0,0,Act1
8.1786,1.2524,1.0247,1,0,1.0776,0,6.0891,1,1,1,1,0,0,0,0,0,1,0,0,1,1,1,0,Act-1
8.4312,1.4346,0.9564,0,0,10.9154,0,7.2794,0,1,1,1,0,0,0,0,0,0,0,0,0,0,0,1,Act-1
8.4514,1.2323,0.8839,0,0,4.764,0,7.5825,1,1,1,1,2,2,2,1,0,0,0,1,0,1,0,1,Act-1
8.4144,1.1951,0.8875,2,0,0,1,5.1537,1,1,1,1,5,2,2,1,0,0,0,0,0,1,1,0,Act-1
8.3813,1.1594,0.9931,1,0,0,0,4.7622,1,1,1,1,5,3,3,1,0,0,0,1,0,1,1,0,Act-1
8.2861,1.1736,0.9669,0,0,0,0,4.7622,1,1,1,1,5,3,3,1,0,0,0,1,0,1,0,0,Act-1
8.184,1.1183,0.6515,0,0,0,1,3.7798,1,1,1,1,0,0,0,0,0,0,0,0,0,1,1,0,Act-1
8.1304,1.1442,0.9643,0,0,0,2,3,1,1,1,1,0,0,0,0,0,0,0,0,1,0,1,0,Act-1
7.8804,1.101,1.1085,0,0,0,0,17.0243,1,1,1,1,0,0,0,0,0,0,0,0,0,0,0,0,Act-1
7.863,1.0987,1.0957,0,0,0,0,16.9148,1,1,1,1,0,0,0,0,0,0,0,0,0,0,0,0,Act-1
8.1761,1.3298,1.0964,0,0,6.9574,0,16.6072,1,1,1,1,0,0,0,0,0,0,0,1,0,0,1,1,Act1
8.0099,1.0668,1.0983,0,0,0,0,18.929,1,1,1,1,0,0,0,0,0,0,0,0,0,0,0,0,Act-1
7.9254,1.0185,0.9546,0,0,0,0,14.1302,1,1,1,1,0,0,0,0,0,0,0,0,0,0,0,0,Act1
8.5807,1.1693,0.966,1,0,0,0,3,1,1,1,1,3,2,2,1,0,0,0,0,0,1,0,0,Act-1
8.1239,1.2065,1.0406,0,0,3.03,0,18.7287,0,1,1,1,0,0,0,0,0,0,0,0,0,0,0,1,Act-1
7.9153,1.3367,0.9345,0,0,0,0,17.3398,1,1,1,1,0,0,0,0,0,1,0,0,0,1,0,0,Act-1
7.9299,1.4196,0.9244,0,0,0,0,18.4313,1,1,1,1,0,0,0,0,0,0,0,0,1,1,0,1,Act-1
8.1071,1.0089,0.9071,0,0,0,5,3,1,1,1,1,0,1,1,0,0,0,0,0,0,0,1,0,Act-1
8.0934,1.2067,1.0102,0,0,3.0397,0,18.1105,0,1,1,1,0,0,0,0,0,0,0,0,0,0,0,1,Act-1
7.7872,1.0268,0.8863,0,0,0,0,16.6839,0,1,1,1,0,0,0,0,0,0,0,0,1,0,0,0,Act1
7.8889,1.2534,0.9347,1,0,0,0,16.6784,0,1,1,1,0,0,0,0,0,0,0,0,1,0,0,0,Act1
7.6939,1.1856,1.042,0,0,0,0,14.5521,0,1,1,1,0,0,0,0,0,0,0,0,1,0,0,0,Act1
7.8936,1.2272,1.0553,0,0,0,0,17.2103,0,1,1,1,0,0,0,0,0,0,0,0,0,0,0,0,Act-1
7.9658,1.2228,1.0422,0,0,0,0,18.6415,0,1,1,1,0,0,0,0,0,0,0,0,0,0,0,0,Act1
7.6823,1.1868,1.049,0,0,0,0,17.0509,0,1,1,1,0,0,0,0,0,0,0,0,1,0,0,0,Act1
8.0069,1.1551,0.9852,0,0,16.3915,0,16.4862,0,1,1,1,0,0,0,1,0,0,0,0,0,0,0,1,Act-1
8.0042,1.4226,0.9219,0,0,0,0,13.1158,1,1,1,1,0,0,0,0,0,0,0,0,0,1,0,1,Act-1
7.9751,1.5547,0.9186,0,1,5.3702,0,15.3387,1,1,1,1,0,0,0,0,0,1,0,0,0,1,0,1,Act-1
7.5,1,0.6727,0,0,0,0,6.2143,0,1,1,1,0,0,0,0,0,0,0,0,0,0,0,0,Act1
7.9327,1.5623,1.1377,0,0,9.553,0,7.3706,0,1,0,1,1,0,0,0,0,1,0,0,0,1,0,1,Act1
8.7333,1.17,2.1127,0,0,0,0,1,0,0,0,0,0,0,0,0,0,0,0,0,0,0,0,0,Act-1
8.5278,1.048,0,0,0,0,0,0,0,0,0,0,1,0,0,0,0,0,0,0,0,0,1,0,Act-1
7.7833,1.0608,1.0792,0,0,0,0,7.5622,0,1,1,1,0,0,0,0,0,0,0,0,0,0,0,0,Act1
7.7196,1.2826,0.8505,0,0,11.7165,0,7.8384,0,1,1,1,0,0,0,0,0,0,0,0,0,0,0,1,Act1
8.1042,1.6291,1.0126,0,0,24.8327,0,12.8736,0,1,1,1,0,0,0,0,0,0,1,1,0,0,0,1,Act1
7.8561,1.1515,0.8845,0,0,8.8902,0,8.1647,0,1,1,1,0,0,0,0,0,0,0,0,0,0,0,0,Act-1
7.7355,1.3635,0.9148,0,0,9.649,0,14.3706,1,1,1,1,0,0,0,0,0,0,0,0,0,0,0,1,Act1
7.7829,1.359,0.9245,0,0,10.9486,0,15.255,1,1,1,1,0,0,0,0,0,0,0,0,0,0,0,1,Act1
7.7462,1.3083,0.9412,0,0,9.2694,0,12.1846,1,1,1,1,0,0,0,0,0,0,0,0,0,0,0,1,Act-1
7.7302,1.3137,0.8913,0,0,11.5532,0,12.434,1,1,1,1,0,0,0,0,0,0,0,0,0,0,0,1,Act-1
7.9928,1.4025,1.0249,0,0,14.5509,0,8.5675,1,1,1,1,0,0,0,0,0,0,0,0,1,0,0,1,Act1
7.6765,1.1868,0.7395,0,0,9.8929,0,6.9805,0,1,0,1,0,0,0,0,0,0,0,0,0,0,0,0,Act1
7.8848,1.3711,1.024,0,0,19.6543,0,10.6425,1,1,1,1,0,0,0,0,0,1,0,0,1,1,0,1,Act-1
7.8838,1.3723,1.0219,0,0,21.6539,0,10.0455,1,1,1,1,0,0,0,0,0,1,0,0,1,1,0,1,Act1
7.8739,1.1914,0.9161,0,0,4.0046,0,11.5645,0,1,1,1,0,0,0,0,0,0,0,0,0,0,0,0,Act1
8.3571,1.3159,0.8966,0,0,5.5257,0,8.0859,1,1,1,1,0,0,0,0,0,0,0,0,1,0,0,0,Act-1
7.8685,1.3463,0.9953,0,0,26.7752,0,15.6368,1,1,1,1,0,0,0,0,0,0,0,0,1,0,0,1,Act-1
7.9691,1.3923,0.9213,0,0,5.3026,0,8.2766,0,1,1,1,0,0,0,0,0,0,0,0,1,0,0,1,Act-1
8.3067,1.3334,0.7793,0,0,5.969,0,6.2567,0,1,1,1,0,0,0,0,0,0,0,0,1,0,0,0,Act1
7.9414,1.3446,0.9912,0,0,16.196,0,13.757,1,1,1,1,0,0,0,0,0,0,0,1,1,0,0,1,Act-1
8.369,1.3265,0.8794,0,0,5.8147,0,8.3398,0,1,1,1,0,0,0,0,0,0,0,0,1,0,0,0,Act1
8.1786,1.3191,0.9297,0,0,6.0345,0,9.3588,0,1,1,1,0,0,0,0,0,0,0,0,1,0,0,0,Act1
7.7974,1.441,0.8964,0,0,35.6429,0,17.5841,0,1,1,1,0,0,0,0,0,0,0,0,1,0,0,1,Act1
7.8519,1.34,0.95,0,0,26.9922,0,13.7872,1,1,1,1,0,0,0,0,0,0,0,0,1,0,0,1,Act-1
8.2963,1.3913,1.1674,0,0,10.1418,0,11.7082,1,1,1,1,3,0,0,0,0,0,0,0,0,1,0,1,Act1
7.8994,1.4578,1.045,0,0,17.0199,0,12.4783,1,1,1,1,0,0,0,0,0,0,0,0,1,0,1,1,Act1
7.8951,1.4593,1.0411,0,0,19.4701,0,12.6231,1,1,1,1,0,0,0,0,0,0,0,0,1,0,0,1,Act1
7.6301,1.4307,0.8811,0,0,38.3926,0,12.7649,0,1,1,1,0,0,0,0,0,1,0,0,1,1,0,1,Act1
7.9375,1.4653,0.8758,0,0,18.0722,0,10.3505,1,1,1,1,0,0,0,0,0,0,0,0,1,0,0,1,Act1
8.4194,1.1609,1.0687,0,0,6.0195,0,2.8717,0,1,1,1,0,0,0,0,0,0,0,0,0,0,0,0,Act-1
7.9444,1.39,0.813,0,0,6.3151,0,8.6203,1,1,1,1,0,0,0,0,1,0,0,0,1,1,0,1,Act1
8.3636,1.2868,0,0,0,6.2373,0,2.8717,0,1,0,0,0,0,0,0,0,0,0,0,0,0,0,0,Act1
8.1833,1.2932,0,0,0,6.4061,0,1.8899,0,1,0,0,0,0,0,0,0,0,0,0,0,0,0,0,Act-1
7.8431,1.3579,0.7248,0,1,13.1103,0,4.1986,0,1,1,1,0,0,0,0,0,0,0,0,0,0,0,1,Act-1
7.8788,1.0331,2.2661,0,0,0,0,1,1,0,0,0,0,0,0,0,0,0,0,1,0,0,0,0,Act-1
7.8889,1.2054,1.0746,0,0,7.5124,0,7.8622,0,1,1,1,0,0,0,0,0,0,0,0,0,0,0,0,Act-1
7.9714,1.2239,1.1019,0,0,1.6181,0,14.8089,1,1,1,1,1,0,0,0,0,1,0,0,0,1,1,0,Act-1
8.2068,1.4486,0.8642,0,1,13.3123,1,6.6226,0,1,1,1,0,0,0,0,0,1,0,1,1,0,0,1,Act1
8.1736,1.4481,1.0104,0,1,12.9525,0,6.6226,0,1,1,1,0,0,0,0,0,1,0,0,1,0,0,1,Act1
8.0532,1.4481,0.8286,0,1,12.2247,0,8.2614,0,1,1,1,0,0,0,0,0,1,0,0,1,1,0,1,Act1
8.1022,1.4493,0.8049,0,1,9.695,0,3.5541,0,1,1,1,0,0,0,0,0,1,0,0,1,1,0,1,Act1
8.2438,1.4486,0.9203,0,1,10.7977,1,2.8717,0,1,1,1,0,0,0,0,0,1,0,1,1,1,0,1,Act-1
8.0949,1.4481,0.8053,0,1,9.6904,0,3.7798,0,1,1,1,0,0,0,0,0,1,0,0,1,1,0,1,Act1
8.0376,1.5164,0.9214,0,0,11.588,2,7.7527,1,1,1,1,0,0,0,0,0,1,0,0,1,1,1,1,Act1
8.3772,1.4555,1.0211,0,0,7.4143,2,2.7495,1,1,1,1,0,0,0,0,0,0,0,1,0,1,0,1,Act-1
7.859,1.4648,0.79,0,2,17.5651,0,17.8608,1,1,1,1,0,0,0,0,0,1,0,0,1,0,0,1,Act-1
7.8218,1.2558,0.8207,0,0,24.6072,0,18.8875,1,1,1,1,0,2,2,0,0,0,0,0,1,0,0,1,Act-1
7.7963,1.4447,0.7295,0,2,20.0793,0,16.9244,1,1,1,1,0,0,0,0,0,1,0,0,1,0,0,1,Act1
7.7385,1.4701,0.781,0,2,28.5014,0,17.6444,1,1,1,1,0,1,1,0,0,1,0,0,1,0,0,1,Act-1
7.8016,1.4561,1.1667,0,1,16.0563,0,6.2705,0,1,1,1,0,0,0,0,0,0,0,0,0,0,0,1,Act1
7.9874,1.4489,1.2169,0,1,14.48,0,6.4216,1,1,1,1,0,0,0,0,0,0,0,0,0,0,0,1,Act1
8.0076,1.4489,1.1614,0,1,14.1794,0,6.2306,1,1,1,1,0,0,0,0,0,0,0,0,0,0,0,1,Act-1
8.2917,1.2399,1.5675,0,1,1.2401,0,0,1,1,1,1,0,0,0,0,0,1,0,0,0,1,0,0,Act-1
7.878,1.3147,0.7834,1,0,20.1085,0,9.7232,1,1,1,1,0,0,0,0,1,0,0,0,0,1,0,1,Act1
7.5762,1.4012,1.059,0,0,30.9788,0,9.5271,1,1,1,1,0,0,0,0,0,1,0,0,1,1,0,1,Act1
7.5602,1.3965,1.0513,0,0,31.1824,0,10.5381,1,1,1,1,0,0,0,0,0,1,0,0,1,1,0,1,Act1
7.7564,1.518,0.8611,0,2,25.5044,0,17.9449,1,1,1,1,0,0,0,0,0,1,0,0,1,0,0,1,Act-1
7.1399,1,0.6881,0,0,0,0,9.7532,0,1,1,1,0,0,0,0,0,0,0,0,0,0,0,0,Act-1
8.0551,1.351,0.9251,0,0,0,0,13.1158,1,1,1,1,0,0,0,0,0,0,0,1,0,1,0,0,Act-1
7.7564,1.3323,0.9799,0,0,1.9713,2,5.7132,1,1,1,1,0,0,0,0,0,0,0,0,0,0,1,0,Act1
8.3383,1.4143,1.0702,0,0,6.6583,0,7.9321,0,1,1,1,0,0,0,0,0,0,0,0,0,0,0,1,Act-1
7.9333,1.4425,0.9246,0,0,12.5437,0,7.036,0,1,1,1,0,0,0,0,0,0,0,0,0,0,0,1,Act1
7.7157,1.406,0.8645,0,0,18.6115,0,10.7611,1,1,1,1,1,0,0,0,0,0,0,0,1,1,0,1,Act1
7.904,1.6374,0.9617,0,0,23.6457,0,11.4992,0,1,1,1,0,0,0,0,0,1,0,0,1,1,0,1,Act1
8.2678,1.4792,1.1003,0,1,11.7513,0,6.347,0,1,1,1,0,0,0,0,0,0,0,0,1,0,1,1,Act1
7.9423,1.5413,0.935,0,0,13.6967,0,7.5569,0,1,1,1,0,0,0,0,0,1,0,0,1,1,0,1,Act1
7.8621,1.5474,1.1032,0,1,15.5968,0,7.9757,1,1,1,1,0,0,0,0,0,1,0,0,1,1,1,1,Act1
7.7569,1.3052,1.2705,0,0,7.723,1,7.9757,1,1,1,1,0,0,0,0,0,0,0,0,1,0,1,1,Act1
7.7569,1.3052,1.2275,0,0,7.8182,1,8.1261,1,1,1,1,0,0,0,0,0,0,0,0,1,0,1,1,Act1
7.6603,1.5374,0.9632,0,1,18.5569,0,8.3751,1,1,1,1,0,0,0,0,0,1,0,0,1,1,0,1,Act1
7.5811,1.4424,1.1033,0,0,18.3079,0,6.7812,0,1,1,1,0,0,0,0,0,1,0,0,1,1,0,1,Act1
7.873,1.3076,1.0595,0,0,5.6635,0,4.3952,0,1,1,1,1,0,0,0,0,1,0,0,1,1,1,1,Act1
7.9365,1.2516,0.9044,0,0,5.7091,0,5.9528,0,1,1,1,0,0,0,0,0,1,0,0,0,1,1,0,Act1
8.0171,1.4123,1.1166,0,0,16.139,0,11.1132,0,1,1,1,0,0,0,0,0,0,0,0,0,0,0,1,Act1
7.7123,1.379,1.1816,0,0,7.1838,1,11.6946,1,1,1,1,2,0,0,0,0,0,0,0,0,1,1,1,Act1
7.6131,1.4022,0.9386,0,0,19.5813,0,11.5866,1,1,1,1,0,0,0,0,0,1,0,0,0,1,0,1,Act1
8.0288,1.4052,0.7956,0,0,14.7626,0,7.962,1,1,1,1,1,0,0,0,0,0,0,0,0,0,0,1,Act1
7.8551,1.4032,0.8938,0,0,12.39,0,8.3199,1,1,1,1,0,0,0,0,0,0,0,0,1,1,0,1,Act1
8.0655,1.4239,1.1984,0,0,17.3119,0,12.514,1,1,1,1,0,1,1,0,0,0,0,0,0,1,0,1,Act-1
7.8205,1.5621,1.0769,0,0,19.4529,0,7.1153,1,1,1,1,0,0,0,0,0,1,0,0,1,1,0,1,Act1
7.9924,1.3436,0.8404,0,0,11.3564,0,13.9076,1,1,1,1,0,1,1,0,0,0,0,0,0,1,0,1,Act1
7.9328,1.4082,0.8972,0,0,19.1721,0,10.038,1,1,1,1,0,0,0,0,0,0,0,0,1,0,0,1,Act-1
7.3431,1.2803,1.0791,0,0,4.0255,0,14.2521,1,1,1,1,0,0,0,0,0,1,0,0,1,1,0,1,Act1
7.4,1.3096,0.9726,0,0,3.9388,0,11.311,1,1,1,1,0,0,0,0,0,1,0,0,1,1,0,1,Act-1
7.441,1.2234,1.0591,0,0,4.0948,0,11.072,1,1,1,1,0,0,0,0,0,1,0,0,0,0,1,0,Act1
8.0255,1.3094,0.985,1,0,9.7949,0,10.9818,1,1,1,1,0,0,0,0,0,0,0,0,0,0,0,1,Act1
7.9551,1.2976,1.049,0,0,8.6684,0,5.2423,0,1,1,1,0,0,0,0,0,0,0,0,1,0,0,1,Act1
7.8833,1.5971,0.9562,0,1,19.1561,0,12.3714,0,1,1,1,0,0,0,0,0,1,0,0,0,1,0,1,Act1
7.9333,1.4437,1.1761,0,0,12.5117,0,7.036,0,1,1,1,0,0,0,0,0,0,0,0,0,0,0,1,Act1
7.6709,1.5631,0.9631,0,0,20.6173,0,8.8802,0,1,1,1,0,0,0,0,0,1,0,0,1,1,0,1,Act1
7.8205,1.5631,0.9863,0,0,19.4228,0,7.1153,0,1,1,1,0,0,0,0,0,1,0,0,1,1,0,1,Act1
7.8917,1.5627,0.9159,0,0,19.874,0,7.1153,0,1,1,1,0,1,1,0,0,1,0,0,1,1,0,1,Act1
7.6985,1.3706,0.8664,0,0,11.9824,0,8.2167,1,1,1,1,0,2,2,0,0,1,0,1,1,1,0,1,Act1
7.6111,1.3038,0.8554,0,0,8.0432,0,6.5523,1,1,1,1,0,0,0,0,0,0,0,0,0,0,0,1,Act1
8.0185,1.568,1.0414,0,0,15.9752,0,7.2254,0,1,1,1,0,0,0,0,0,1,0,0,1,1,0,1,Act1
8.023,1.5602,1.0858,0,0,14.2146,0,7.2254,1,1,1,1,0,0,0,0,0,1,0,0,1,1,0,1,Act1
8.0333,1.4922,1.149,0,0,13.4158,0,4.3367,0,1,1,1,0,0,0,0,0,0,0,0,1,0,0,1,Act-1
7.8889,1.4851,0.9823,0,0,13.6625,0,4.3367,0,1,1,1,0,0,0,0,0,0,0,0,1,0,0,1,Act1
7.4709,1.6792,0.8267,0,0,0,0,14.1067,0,1,1,1,0,0,0,0,0,0,0,0,0,0,0,0,Act1
7.9167,1.1385,0.8719,0,0,0,0,9.4243,0,1,1,1,0,0,0,0,0,0,0,0,0,0,0,0,Act-1
8.0288,1.4087,0.7732,0,0,14.6264,0,8.3531,0,1,1,1,1,0,0,0,0,0,0,0,0,0,0,1,Act1
8.0288,1.4109,0.8064,0,0,14.5277,0,9.9058,1,1,1,1,1,0,0,0,0,0,0,0,0,0,0,1,Act1
7.6481,1.4119,1.0283,0,1,7.3297,0,8.5666,1,1,1,1,0,0,0,0,0,1,0,0,1,1,0,1,Act1
7.6765,1.5076,1.1189,0,0,20.3997,0,11.9161,1,1,1,1,0,0,0,0,0,0,0,0,1,1,0,1,Act1
7.6839,1.4752,1.1477,0,0,11.1793,0,10.1266,1,1,1,1,2,0,0,0,0,1,0,0,1,1,0,1,Act1
7.523,1.4081,1.0958,0,0,20.0463,0,13.3648,1,1,1,1,0,0,0,0,0,1,0,0,0,1,0,1,Act1
7.9282,1.2302,1.0597,0,0,4.9518,0,8.3961,0,1,1,1,0,0,0,0,0,0,0,0,1,1,0,0,Act1
7.5139,1.47,1.0986,0,0,14.0724,0,8.0385,0,1,1,1,0,0,0,0,0,0,0,0,0,1,0,1,Act1
7.6528,1.3767,0.7409,0,0,12.7559,0,12.8486,1,1,1,1,0,1,1,0,0,0,0,0,1,1,0,1,Act1
8.0221,1.2872,0.971,0,0,9.1927,0,11.7785,1,1,1,1,0,1,1,0,0,0,0,0,0,0,0,1,Act1
7.6975,1.4334,0.9729,0,1,19.6424,0,6.7635,1,1,1,1,1,0,0,0,0,1,0,0,1,0,0,1,Act1
8.237,1.4891,0.8312,0,0,11.0672,0,8.6712,1,1,1,1,0,0,0,0,0,0,0,0,0,0,0,1,Act1
7.7452,1.3968,0.7578,0,0,9.2055,0,8.73,1,1,1,1,0,0,0,0,0,0,0,0,0,0,0,1,Act1
7.6905,1.4,0.7566,0,0,11.6244,0,8.6959,1,1,1,1,0,0,0,0,0,0,0,0,0,0,0,1,Act1
7.7821,1.301,1.2033,0,0,5.7869,1,6.9252,1,1,1,1,0,0,0,0,0,0,0,0,1,0,1,1,Act1
7.8651,1.3538,1.2063,0,0,5.3285,2,2.8717,0,1,1,1,0,0,0,0,0,1,0,0,0,1,1,1,Act1
8,1.431,0.7664,0,0,11.2833,0,8.3204,1,1,1,1,0,0,0,0,0,0,0,0,1,1,0,1,Act1
8.023,1.5546,1.0388,0,0,14.3298,0,7.1153,1,1,1,1,0,0,0,0,0,1,0,0,1,1,0,1,Act1
7.987,1.5472,0.9894,0,0,21.57,0,14.4469,1,1,1,1,0,0,0,0,0,0,0,0,1,1,0,1,Act1
7.9167,1.3114,1.0454,0,0,8.942,0,8.0355,0,1,1,1,0,0,0,0,0,0,0,0,1,0,0,1,Act-1
7.628,1.4484,0.9101,0,1,11.2687,0,5,0,1,1,1,0,1,1,1,0,1,0,0,1,1,0,1,Act-1
8.251,1.2841,1.3286,0,0,6.7712,0,6.5975,0,1,1,1,0,1,1,0,0,1,0,0,1,1,0,1,Act1
7.6956,1.2881,1.0902,0,0,11.0116,0,8.2342,0,1,1,1,0,0,0,0,0,1,0,0,1,1,0,1,Act1
8.6344,1.2794,0.8022,0,0,6.4424,0,7.2158,0,1,1,1,0,0,0,0,0,1,0,0,1,1,0,1,Act1
8.1759,1.2867,0.8841,0,0,10.5017,0,7.2158,0,1,1,1,0,0,0,0,0,1,0,0,1,1,0,1,Act1
8.1759,1.2984,0.8437,0,0,10.7093,0,7.2158,0,1,1,1,0,0,0,0,0,1,0,0,1,1,0,1,Act-1
8.0637,1.2373,0.9218,0,0,1.538,0,5.5595,0,1,1,1,0,0,0,0,0,0,0,0,0,0,0,0,Act-1
7.8611,1.4011,0.7253,0,1,8.7339,0,4.5113,1,1,1,1,0,0,0,0,0,0,0,0,0,0,0,1,Act1
7.6398,1.2373,0.8478,0,0,17.6983,0,14.6693,0,1,1,1,0,0,0,0,0,0,0,0,0,1,0,1,Act1
7.8167,1.2995,1.0001,0,0,14.232,0,10.6662,1,1,1,1,0,0,0,0,1,1,0,0,1,1,0,1,Act1
7.619,1.4805,1.175,0,0,17.6763,0,6.7359,0,1,1,1,0,0,0,0,0,0,0,0,1,1,0,1,Act1
7.9533,1.4409,1.068,1,0,14.6694,0,6.7197,1,1,1,1,0,0,0,0,0,0,0,0,1,0,0,1,Act-1
7.9286,1.342,0.8561,0,0,10.836,0,10.9069,0,1,1,1,0,0,0,0,0,0,0,0,1,1,1,1,Act1
7.7273,1.3087,1.0971,0,0,9.963,1,8.3733,1,1,1,1,0,0,0,0,0,0,0,0,1,0,1,1,Act1
7.8981,1.4771,1.015,0,0,21.2101,0,12.829,1,1,1,1,1,0,0,0,0,1,0,0,1,1,0,1,Act1
7.6232,1.4712,1.0195,0,0,15.1822,0,7.7526,0,1,0,1,2,0,0,0,0,1,0,0,1,1,0,1,Act1
7.7133,1.3768,0.8727,0,0,20.5986,0,7.4596,1,1,1,1,0,0,0,0,0,1,0,0,1,1,0,1,Act1
8.3194,1.2722,0.8384,0,0,14.9103,0,10.5277,1,1,1,1,0,0,0,0,1,0,0,0,1,1,0,1,Act-1
7.7632,1.3245,1.0552,0,0,7.6747,0,13.1549,0,1,1,1,0,0,0,0,0,1,0,0,0,1,0,0,Act1
7.6036,1.3976,1.0258,0,0,28.5874,0,8.9868,1,1,1,1,0,0,0,0,0,1,0,0,1,1,0,1,Act1
7.6111,1.4027,0.9794,0,0,28.7015,0,9.9922,1,1,1,1,0,0,0,0,0,1,0,0,1,1,0,1,Act1
7.6471,1.4141,0.9883,0,0,28.4347,0,8.9868,1,1,1,1,0,0,0,0,0,1,0,0,1,1,0,1,Act1
7.5405,1.3769,1.0145,0,0,28.8908,0,8.9868,0,1,1,1,0,0,0,0,0,1,0,0,1,1,0,1,Act1
7.8131,1.2847,0.8839,0,0,11.9838,0,15.2589,1,1,1,1,0,1,1,0,1,0,0,0,0,1,0,1,Act1
7.5833,1.3294,0.8051,0,0,22.0218,0,9.8028,0,1,1,1,1,0,0,0,0,0,0,0,0,0,0,1,Act1
7.5133,1.2516,0.9054,0,0,10.3773,0,8.0648,1,1,1,1,1,0,0,0,0,0,0,0,0,0,0,1,Act1
7.7955,1.4782,0.7465,0,0,16.4833,0,6.9966,0,1,1,1,0,0,0,0,0,0,0,0,0,1,0,1,Act1
7.8333,1.2613,0.7737,0,0,7.4711,0,8.2423,1,1,1,1,0,0,0,0,0,0,0,0,0,1,0,0,Act1
7.8167,1.3016,1.1119,0,0,14.2778,0,11.7005,1,1,1,1,0,0,0,0,1,1,0,0,1,1,0,1,Act1
7.9828,1.3051,0.9269,0,0,12.9804,0,11.5982,1,1,1,1,0,0,0,0,1,1,0,0,1,1,0,1,Act1
7.78,1.206,0.9018,0,0,7.1973,0,9.782,1,1,1,1,0,0,0,0,1,1,0,0,1,1,0,0,Act1
7.95,1.2945,0.9959,0,0,13.0509,0,11.7049,1,1,1,1,0,0,0,0,1,1,0,0,1,1,0,1,Act1
7.95,1.2945,0.9959,0,0,13.0509,0,11.7049,1,1,1,1,0,0,0,0,1,1,0,0,1,1,0,1,Act1
7.8046,1.2942,0.9836,0,0,14.4061,0,12.925,1,1,1,1,0,1,1,0,1,1,0,0,1,1,0,1,Act1
7.8046,1.2942,1.0796,0,0,16.5085,0,10.4063,1,1,1,1,0,0,0,0,1,1,0,0,1,1,0,1,Act1
7.5123,1.187,0.9998,0,0,7.4241,0,11.4409,1,1,1,1,0,0,0,0,1,1,0,0,1,1,0,0,Act1
7.78,1.206,1.2564,0,0,7.222,0,8.8514,1,1,1,1,0,0,0,0,1,1,0,0,1,1,0,0,Act1
7.95,1.2945,0.9935,0,0,13.1186,0,11.344,1,1,1,1,0,0,0,0,1,1,0,0,1,1,0,1,Act1
7.62,1.4253,1.1483,0,1,15.4057,0,8.7843,1,1,1,1,0,0,0,0,0,0,0,0,1,0,0,1,Act1
8.2328,1.4268,0.91,0,0,18.9246,0,8.1104,1,1,1,1,0,0,0,0,0,0,0,0,1,0,0,1,Act1
7.7273,1.4536,1.0003,0,0,14.9163,0,7.4182,1,1,1,1,0,0,0,0,1,1,0,0,1,1,0,1,Act1
7.7625,1.5154,1.1282,0,0,23.8427,0,11.764,1,1,1,1,0,0,0,0,0,1,0,0,0,1,0,1,Act1
7.7949,1.2774,1.0818,0,0,14.4605,0,12.3637,1,1,1,1,0,0,0,0,0,0,0,0,0,0,0,1,Act1
7.9684,1.2676,0.9829,0,0,13.4863,0,6.4375,1,1,1,1,0,0,0,0,0,0,0,0,0,0,0,1,Act1
7.987,1.545,0.9303,0,0,21.4648,0,13.8,1,1,1,1,0,0,0,0,0,0,0,0,1,1,0,1,Act1
8.0545,1.4751,0.8239,0,0,17.2273,0,8.5773,1,1,1,1,0,0,0,0,0,1,0,0,0,0,0,1,Act1
7.7284,1.4405,0.8937,0,0,14.2722,0,7.9039,1,1,1,1,0,0,0,0,0,1,0,0,1,1,0,1,Act1
8.1233,1.2972,1.07,0,0,6.5862,0,5.9528,1,1,1,1,2,0,0,0,0,0,0,0,0,1,0,1,Act1
7.7273,1.3114,1.2416,0,0,9.9584,1,9.1761,1,1,0,1,0,0,0,0,0,0,0,0,1,0,1,1,Act1
7.7153,1.4296,0.9675,0,0,13.0132,0,7.2939,1,1,1,1,0,0,0,0,1,1,0,0,1,1,0,1,Act1
7.4349,1.3713,0.9096,0,0,18.9112,0,14.4922,0,1,0,1,0,1,1,0,0,0,0,0,1,1,0,1,Act-1
7.7885,1.3507,0.8802,0,0,12.4708,0,10.7694,0,1,1,1,0,0,0,0,0,0,0,0,0,1,0,1,Act1
7.9856,1.4357,0.8959,0,0,18.2848,0,11.8803,1,1,1,1,0,0,0,0,0,0,0,0,0,0,0,1,Act1
8.0288,1.4177,0.9283,0,0,14.5797,0,9.4649,0,1,1,1,1,0,0,0,0,0,0,0,0,0,0,1,Act-1
7.9519,1.411,0.8441,0,0,15.2884,0,9.8365,1,1,1,1,1,0,0,0,0,0,0,0,0,1,1,1,Act1
8.2006,1.4013,0.8667,0,0,13.3227,1,9.8365,1,1,1,1,1,0,0,0,0,0,0,1,0,0,0,1,Act1
7.5784,1.4284,1.0023,0,0,25.4127,0,11.7511,1,1,1,1,0,1,1,0,0,1,0,0,1,1,0,1,Act1
7.88,1.415,0.8796,0,0,15.8793,0,10.2258,1,1,1,1,0,0,0,0,0,0,0,0,0,0,0,1,Act1
7.8157,1.4128,0.9395,0,0,19.4622,0,15.2762,1,1,1,1,0,0,0,0,0,0,0,0,1,0,0,1,Act-1
7.8359,1.4128,0.9909,0,0,19.1931,0,11.0948,1,1,1,1,0,0,0,0,0,0,0,0,1,0,0,1,Act1
8.0154,1.4381,0.8727,0,0,18.0474,0,11.6669,1,1,1,1,1,0,0,0,0,1,0,0,0,0,0,1,Act1
7.9274,1.5607,0.9473,0,0,22.1844,0,12.2499,1,1,1,1,0,0,0,0,0,0,0,0,0,1,0,1,Act1
7.8952,1.5607,0.9562,0,0,24.8484,0,13.4396,1,1,1,1,0,0,0,0,0,0,0,0,0,0,0,1,Act1
7.9904,1.411,0.9057,0,0,16.9764,0,10.8537,1,1,1,1,0,0,0,0,0,0,0,0,0,0,0,1,Act1
7.8662,1.4128,0.9792,0,0,16.7472,0,10.695,1,1,1,1,0,1,1,0,0,1,0,0,1,0,0,1,Act1
8.0154,1.4381,0.9111,0,0,17.8611,0,10.695,1,1,1,1,0,1,1,0,0,0,0,0,0,0,0,1,Act-1
8.0525,1.4381,0.8148,0,0,15.932,0,10.1266,1,1,1,1,2,0,0,0,0,0,0,0,0,1,0,1,Act1
7.9917,1.5268,0.8064,0,0,18.4517,0,12.4615,1,1,1,1,1,0,0,0,1,0,0,0,0,0,0,1,Act1
7.9167,1.4108,0.9168,0,0,15.412,0,9.8365,1,1,1,1,1,0,0,0,0,0,0,0,0,0,0,1,Act1
8.1759,1.2867,0.8841,0,0,10.7334,0,7.09,0,1,1,1,0,0,0,0,0,1,0,0,1,1,0,1,Act1
8.5909,1.4822,0.8455,0,0,16.1987,0,11.3169,1,1,1,1,0,0,0,0,0,0,0,0,0,1,0,1,Act-1
7.8678,1.4555,1.2439,0,0,14.3708,0,14.1636,1,1,1,1,2,0,0,0,0,0,0,0,0,1,0,1,Act1
7.6911,1.4124,0.9324,0,0,13.2038,0,10.519,1,1,1,1,0,0,0,0,0,0,0,0,0,0,0,1,Act1
7.9667,1.4544,0.9831,0,1,14.7384,0,7.2416,1,1,1,1,0,0,0,0,0,1,0,0,1,0,0,1,Act1
7.7273,1.3196,1.055,0,0,9.9271,1,9.2631,1,1,1,1,0,0,0,0,0,0,0,0,1,0,1,1,Act1
7.5469,1.6495,0.9121,0,0,31.9916,0,13.0994,0,1,1,1,0,0,0,0,0,1,0,0,1,1,0,1,Act-1
7.3939,1.331,1.1227,0,0,16.8925,0,11.2752,0,1,1,1,0,0,0,0,0,0,0,0,1,0,0,1,Act1
7.9033,1.418,0.9278,0,0,17.5608,0,9.6382,0,1,1,1,1,0,0,0,0,0,0,0,0,0,0,1,Act1
7.62,1.4353,1.0917,0,1,15.3528,0,9.7433,1,1,1,1,0,0,0,0,0,0,0,0,1,0,0,1,Act1
7.649,1.4034,0.8152,0,0,17.3861,0,14.3754,0,1,1,1,0,0,0,0,0,1,0,0,1,0,0,1,Act1
7.5323,1.4059,0.778,0,0,22.2239,0,14.8239,0,1,1,1,0,0,0,0,0,0,0,0,1,0,0,1,Act1
7.7656,1.2877,0.9025,0,0,20.8749,0,10.8074,1,1,1,1,0,0,0,0,0,1,0,0,1,0,0,1,Act1
7.8556,1.4123,1.1655,0,0,16.7544,0,10.6051,1,1,0,1,0,0,0,0,0,1,0,0,1,1,0,1,Act1
7.7259,1.4173,1.0648,0,0,18.3383,0,11.1853,1,1,0,1,0,0,0,0,0,1,0,0,1,1,0,1,Act1
8.2125,1.5251,1.0494,2,0,21.5799,0,11.4948,0,1,1,1,0,0,0,0,0,0,0,0,0,0,0,1,Act1
7.987,1.5539,1.0709,0,0,21.7338,0,14.3676,1,1,1,1,0,0,0,0,0,0,0,0,1,1,0,1,Act1
7.6667,1.4024,1.0484,0,0,13.8665,0,13.2863,1,1,1,1,0,0,0,0,0,0,0,0,0,1,0,1,Act1
7.8542,1.3859,0.8788,0,0,14.8102,0,10.5683,1,1,1,1,0,2,2,0,0,0,0,0,0,1,0,1,Act1
7.8462,1.4826,1.0381,0,0,12.6664,0,10.8093,1,1,1,1,0,0,0,0,0,1,0,0,1,1,0,1,Act1
8.04,1.4835,0.891,0,0,10.9872,0,10.3286,1,1,1,1,0,0,0,0,0,1,0,0,1,1,0,1,Act1
7.8264,1.4867,1.0365,0,0,14.8355,0,10.6879,1,1,1,1,0,0,0,0,0,1,0,0,1,1,0,1,Act1
7.8333,1.4568,1.0817,0,0,11.1465,0,10.1707,1,1,1,1,1,0,0,0,0,1,0,0,1,1,0,1,Act1
7.8142,1.3864,0.6693,0,0,6.8767,0,8.8857,1,1,1,1,0,0,0,0,1,0,0,0,1,1,0,1,Act1
7.6467,1.3262,1.2684,0,0,12.6079,0,8.3155,0,1,1,1,0,0,0,0,0,0,0,0,1,0,0,1,Act1
7.9617,1.5112,0.9637,0,0,19.2406,0,13.2433,1,1,1,1,0,1,1,0,0,0,0,0,0,1,0,1,Act1
7.7889,1.2241,0.7435,0,0,3.2876,0,10.6836,0,1,1,1,0,0,0,0,0,0,0,0,1,1,0,0,Act1
8.1902,1.599,0.861,0,0,14.1308,0,12.0433,1,1,1,1,2,0,0,0,1,0,0,0,1,1,0,1,Act1
7.5897,1.6252,1.2474,0,1,21.6495,0,7.6453,0,1,1,1,0,2,2,0,0,0,0,0,1,1,0,1,Act-1
7.7778,1.4087,0.9837,0,0,12.93,0,8.2253,1,1,1,1,0,0,0,0,1,0,0,0,1,1,0,1,Act1
8.0635,1.561,1.0885,0,0,14.0917,0,7.8458,1,1,1,1,0,0,0,0,0,1,0,0,1,1,0,1,Act1
8.1957,1.2751,1.3796,1,0,0,0,7.3918,0,1,1,1,0,0,0,0,0,0,0,0,0,0,0,0,Act1
7.9952,1.4771,0.9504,0,0,14.9056,0,9.0338,1,1,1,1,0,0,0,0,1,0,0,1,1,1,0,1,Act-1
7.6012,1.2435,0.9692,0,0,6.2823,0,8.2531,1,1,1,1,0,0,0,0,0,0,0,0,0,0,0,1,Act-1
7.9943,1.2161,0.9876,0,0,1.1731,1,9.3598,0,1,1,1,0,0,0,0,0,0,0,1,1,1,1,0,Act-1
8.0741,1.2337,0.8496,1,0,1.1603,0,6.9158,0,1,1,1,0,0,0,0,0,0,0,0,1,1,0,0,Act1
8.529,1.1835,0.8174,0,0,1.0567,0,1.8899,0,1,1,1,0,0,0,0,0,0,0,0,0,0,0,0,Act-1
8.033,1.1042,1.0113,0,0,0,0,16.2491,1,1,1,1,0,0,0,0,0,0,0,0,0,0,0,0,Act-1
7.7429,1.3218,1.0573,0,0,6.5628,0,7.5786,1,1,1,1,0,0,0,0,0,1,0,0,0,1,1,1,Act1
7.5521,1.1998,0.3543,0,0,2.0905,0,2,1,1,1,0,0,0,0,0,0,0,0,0,0,0,0,0,Act1
7.9688,1.4034,0,0,0,5.2978,0,4.436,0,1,1,0,0,0,0,0,0,0,0,0,0,0,0,1,Act-1
7.4489,1.1626,1.0049,0,0,5.0855,0,15.9241,0,1,1,1,0,0,0,0,0,0,0,0,0,0,0,0,Act-1
7.7667,1.2375,0.9769,0,0,3.5973,0,6.4828,1,1,1,1,0,0,0,0,0,0,0,0,0,0,0,0,Act1
7.9603,1.2195,1.1238,0,0,6.9269,0,7.236,0,1,1,1,0,0,0,0,0,0,0,0,1,0,0,1,Act1
8.1226,1.2273,1.0612,0,0,6.4719,0,7.236,0,1,1,1,0,0,0,0,0,0,1,0,1,0,0,1,Act1
7.9094,1.2549,1.118,0,0,12.5939,0,9.3746,0,1,1,1,0,0,0,0,0,0,0,0,1,0,0,1,Act1
7.7738,1.3125,0.9571,0,0,10.9076,0,6.2421,1,1,1,1,0,1,1,0,0,0,0,0,0,0,0,1,Act1
7.8923,1.4755,1.1239,0,0,19.0803,0,16.9198,1,1,1,1,0,1,1,0,0,0,0,0,0,0,0,1,Act1
7.8062,1.2386,0.9462,0,0,6.3389,0,10.9109,0,1,1,1,0,0,0,0,0,0,0,0,0,1,0,1,Act1
7.8264,1.4962,0.8943,1,0,2.0566,0,9.8464,0,1,1,1,0,0,0,0,0,0,0,0,0,0,0,0,Act1
7.8083,1.3625,0.971,0,0,5.5142,1,3.6914,0,1,1,1,0,0,0,0,0,1,0,0,0,1,1,1,Act-1
7.7549,1.3501,1.0956,0,0,3.5739,0,3,1,1,1,1,0,0,0,0,0,0,0,0,1,1,0,1,Act1
7.8267,1.3166,0.8347,0,0,7.1412,0,5.8605,1,1,1,1,0,0,0,0,0,0,0,0,0,0,0,1,Act-1
8.1905,1.3888,1.0805,0,0,11.4993,0,10.8617,0,1,1,1,0,0,0,0,0,0,0,0,1,0,0,1,Act-1
8.3986,1.3795,1.1572,0,0,6.239,0,7.0382,0,1,1,1,0,0,0,0,0,0,0,0,1,0,0,1,Act-1
7.8651,1.3538,1.2063,0,0,5.3285,2,2.8717,0,1,1,1,0,0,0,0,0,1,0,0,0,1,1,1,Act-1
7.7955,1.2288,0.9801,0,0,5.072,0,12.0179,1,1,1,1,0,0,0,0,0,0,0,0,0,0,0,0,Act1
7.9201,1.253,0.9879,0,0,9.0587,0,14.2553,0,1,1,1,0,0,0,0,0,0,0,0,0,1,1,1,Act-1
7.7333,1.4056,0.7705,0,0,13.0698,0,5.4273,0,1,0,0,0,0,0,0,0,0,0,1,1,1,1,1,Act-1
7.8482,1.602,1.0524,0,0,20.9748,0,7.5333,0,1,1,1,0,1,1,0,0,0,0,1,0,1,0,1,Act1
7.5263,1.3769,1.0839,0,0,9.8325,0,7.5174,1,1,1,1,0,0,0,0,0,0,0,1,0,0,0,1,Act-1
7.5789,1.3769,1.0487,0,0,9.7786,0,7.5174,1,1,1,1,0,0,0,0,0,0,0,0,0,0,1,1,Act-1
7.7191,1.4281,1.096,0,0,8.458,0,9.9613,1,1,1,1,0,0,0,0,0,0,0,0,0,1,0,1,Act1
7.7654,1.4622,0.8505,0,0,7.6005,0,5.7026,1,1,1,1,0,0,0,0,0,1,0,0,0,1,1,1,Act-1
8.2149,1.3529,0.813,0,0,8.4355,0,5,0,1,1,1,1,0,0,0,0,1,0,0,0,1,1,1,Act-1
7.9462,1.2902,1.0316,0,0,4.2441,0,8.4564,1,1,1,1,0,0,0,0,0,0,0,0,0,0,0,1,Act1
7.7917,1.2506,0,0,0,5.3825,0,1,0,1,0,0,0,0,0,0,0,0,0,0,0,0,0,0,Act1
7.4345,1.3827,1.0753,0,0,14.8396,0,9.7878,1,1,1,1,0,0,0,0,0,0,0,0,1,0,0,1,Act1
7.7321,1.3035,0.7168,0,0,3.6686,2,5.4507,1,1,1,1,0,0,0,0,0,1,0,1,1,1,1,1,Act-1
7.725,1.3142,1.0253,0,0,3.8701,0,4.8547,0,1,1,1,0,0,0,0,0,0,0,0,0,0,0,1,Act-1
7.8966,1.3308,0.9973,0,0,1.9156,0,6.0746,1,1,1,1,0,0,0,0,0,0,0,0,0,0,0,0,Act-1
8.2079,1.3542,0.7736,1,0,7.7839,0,10.8427,0,1,1,1,0,0,0,0,0,0,0,0,0,0,0,1,Act-1
7.5144,1.1701,0.9047,0,0,4.2102,0,6.0623,1,1,1,1,0,0,0,0,0,0,0,0,0,1,0,0,Act1
7.6577,1.4554,0.9624,0,0,16.4335,2,14.0337,1,1,1,1,0,0,0,0,0,0,0,1,0,0,0,1,Act-1
7.5797,1.1817,0.869,0,0,4.15,0,8.4257,1,1,1,1,0,0,0,0,0,0,0,0,0,0,0,0,Act1
7.6111,1.1632,1.0368,0,0,4.2023,1,9.4794,1,1,1,1,0,0,0,0,0,0,0,0,0,0,1,0,Act1
7.6954,1.268,1.0342,0,0,13.7648,1,11.8644,0,1,1,1,0,0,0,0,0,0,0,1,0,0,0,1,Act-1
7.5298,1.2738,1.0341,0,0,14.6017,1,11.8644,0,1,1,1,0,0,0,0,0,0,0,1,0,0,0,1,Act-1
7.5797,1.1817,0.869,0,0,4.15,0,8.4257,1,1,1,1,0,0,0,0,0,0,0,0,0,0,0,0,Act1
7.598,1.2792,0.8741,0,0,8.1773,0,10.7572,0,1,1,1,0,0,0,0,0,0,0,0,0,1,0,1,Act1
7.6,1.4524,0.9731,0,0,19.834,1,11.0358,1,1,1,1,0,0,0,0,0,0,0,1,0,0,0,1,Act1
7.7857,1.3228,0.9717,0,0,3.5548,0,8.0347,1,1,1,1,0,0,0,0,0,1,0,0,0,1,1,1,Act-1
7.8155,1.3783,0.757,0,0,8.4306,1,5.4507,1,1,1,1,0,0,0,0,0,1,0,0,1,1,1,1,Act-1
7.9704,1.4632,1.0762,0,0,11.3995,0,9.8808,1,1,1,1,0,1,1,0,1,0,0,0,0,0,1,1,Act-1
8.1319,1.444,0.9112,0,0,11.445,0,8.9314,0,1,1,1,0,0,0,0,0,0,0,0,0,0,0,1,Act-1
8.2308,1.3375,0.7455,1,0,7.1385,0,3.6914,0,1,1,1,0,0,0,0,0,0,0,0,0,0,0,0,Act-1
7.7963,1.299,1.0373,0,0,7.4732,0,9.1126,0,1,1,1,0,0,0,0,0,0,0,0,0,0,0,0,Act1
8.314,1.2442,1.0351,0,0,6.8971,0,11.011,0,1,1,1,0,0,0,0,0,0,0,0,1,0,0,1,Act-1
7.7931,1.302,1.1441,0,0,15.3568,0,7.6464,1,1,1,1,1,0,0,0,0,0,0,0,1,0,0,1,Act1
8.0196,1.3747,0.8281,0,0,13.4721,0,6.4972,0,1,1,1,0,0,0,0,0,0,0,0,0,0,0,1,Act-1
7.8587,1.3251,1.1052,0,0,14.2823,0,10.2093,0,1,1,1,0,0,0,0,0,0,0,0,0,0,0,1,Act1
8.0417,1.2255,0.4838,0,0,6.7789,0,5.681,0,1,1,1,0,0,0,0,0,0,0,0,0,0,0,0,Act-1
7.8333,1.3325,0.8694,0,0,10.6167,0,6.3233,1,1,1,1,0,0,0,0,0,0,0,0,0,1,0,1,Act-1
7.5641,1.3304,1.0507,0,0,15.3032,0,10.5882,0,1,1,1,0,0,0,0,0,0,0,0,0,0,0,1,Act1
7.75,1.3176,1.0189,0,0,12.7944,0,6.9966,1,1,1,1,0,1,1,0,0,0,0,0,0,0,0,1,Act-1
7.3405,1.2617,1.03,0,0,28.951,0,12.4605,0,1,1,1,0,0,0,0,0,0,0,0,0,0,0,1,Act-1
7.5042,1.1718,0.8273,0,0,8.2193,1,6.4179,0,1,1,1,0,0,0,0,0,0,0,1,0,0,0,0,Act-1
7.6461,1.4014,1.1123,0,0,23.4331,0,6.6238,0,1,1,1,0,0,0,0,0,0,0,0,0,0,0,1,Act1
7.5208,1.1718,0.8432,0,0,8.1741,0,6.4179,0,1,1,1,0,0,0,0,0,0,0,0,0,0,0,0,Act-1
7.96,1.3174,0.8347,0,0,12.5284,0,9.1497,1,1,1,1,0,0,0,0,0,0,0,0,0,0,0,1,Act1
7.8633,1.1939,1.2094,1,0,5.7164,0,9.2218,0,1,1,1,0,0,0,0,0,0,0,0,1,0,0,0,Act1
7.9649,1.3646,1.1071,0,0,14.0349,0,6.6429,0,1,1,1,0,0,0,0,0,0,0,0,1,0,0,1,Act1
8.2348,1.3371,1.0666,0,0,7.1018,0,7.0827,0,1,1,1,0,0,0,0,0,0,0,0,1,0,0,1,Act-1
7.6071,1.2875,1.8681,0,0,8.0177,0,3.8183,0,1,1,1,0,0,0,0,0,0,0,0,1,0,0,0,Act1
8.5525,1.4592,1.2148,0,0,10.3409,1,6.6204,0,1,1,1,0,0,0,0,0,0,0,0,1,1,1,1,Act1
7.5672,1.4056,1.0792,0,0,18.3592,0,10.5543,0,1,1,1,0,0,0,0,0,0,0,0,1,0,0,1,Act-1
7.6417,1.205,1.1726,0,0,6.0236,0,7.3342,0,1,1,1,0,0,0,0,0,0,0,0,1,0,0,0,Act1
8.1349,1.401,1.3793,0,0,8.9895,0,6.6204,0,1,1,1,0,0,0,0,0,0,0,0,1,0,0,1,Act-1
8.0374,1.342,0.8404,0,0,10.2173,0,7.0079,1,1,1,1,0,0,0,0,0,0,0,0,1,0,0,1,Act-1
7.9533,1.4409,1.068,1,0,14.6694,0,6.7197,1,1,1,1,0,0,0,0,0,0,0,0,1,0,0,1,Act1
7.7816,1.302,1.1442,0,0,15.3998,0,7.6464,1,1,1,1,1,0,0,0,0,0,0,1,1,0,0,1,Act-1
7.9196,1.3033,0.8689,0,0,10.7364,0,9.7604,1,1,1,1,0,0,0,0,0,0,0,0,0,0,0,1,Act-1
7.6468,1.3878,0.9868,0,0,20.4145,2,14.2729,1,1,1,1,0,0,0,0,0,0,0,1,0,0,0,1,Act-1
7.6533,1.4738,0.9303,0,0,13.6077,0,6.5767,1,1,1,1,0,0,0,0,0,0,0,0,0,0,0,1,Act1
7.6867,1.2976,1.0827,0,0,13.6901,0,8.425,0,1,1,1,0,0,0,0,0,0,0,0,0,0,0,1,Act1
8.0463,1.3047,0.9157,0,0,10.8688,0,13.989,0,1,1,1,1,0,0,0,1,0,0,1,0,0,0,1,Act-1
8.0311,1.3047,0.8982,0,0,10.9803,0,13.989,0,1,1,1,1,0,0,0,1,0,0,0,0,0,0,1,Act-1
7.9603,1.3764,1.1255,0,1,19.589,0,12.7004,1,1,1,1,0,1,1,0,0,1,0,0,1,0,1,1,Act1
7.4841,1.3113,0.9955,0,0,16.1174,0,7.09,0,1,1,1,0,0,0,0,0,1,0,1,0,0,0,1,Act-1
7.5,1.3113,0.9983,0,0,16.0653,0,7.09,0,1,1,1,0,0,0,0,0,1,0,0,0,0,0,1,Act1
7.8137,1.2891,1.178,0,0,17.0507,0,10.1778,1,1,1,1,0,0,0,0,0,0,0,0,0,0,0,1,Act-1
7.5614,1.2003,0.8116,0,0,3.9733,0,1.8899,1,1,1,1,0,0,0,0,0,0,0,0,0,0,0,0,Act-1
7.8317,1.379,1.1434,0,0,11.9127,0,13.2852,1,1,1,1,0,2,2,0,0,1,0,0,1,1,0,1,Act-1
7.8571,1.3515,0.953,0,0,11.0674,0,9.3088,1,1,1,1,0,1,1,0,0,0,0,0,0,0,0,1,Act1
7.8873,1.3759,0.9724,0,0,14.5133,0,12.0841,1,1,1,1,0,1,1,0,0,0,0,0,1,1,1,1,Act1
7.9774,1.4505,1.1064,0,0,16.0337,0,12.1706,1,1,1,1,0,0,0,0,0,1,0,0,0,1,0,1,Act1
8.2149,1.3501,1.0357,0,0,8.8058,0,5.7487,1,1,1,1,1,1,1,0,0,1,0,0,0,0,1,1,Act1
7.7731,1.4378,1.0769,0,1,7.2469,0,8.3961,1,1,1,1,1,0,0,0,0,0,0,0,0,0,0,1,Act-1
7.7843,1.3582,0.7969,0,0,7.9101,0,7.6095,1,1,1,1,0,0,0,0,0,0,0,0,0,0,0,1,Act-1
7.7014,1.3666,0.7148,0,0,13.3209,0,7.9836,0,1,1,1,0,0,0,0,0,0,0,0,1,0,0,1,Act-1
8.009,1.3029,1.0844,0,0,11.2034,0,14.5493,1,1,1,1,1,0,0,0,1,0,0,0,0,0,0,1,Act1
8.1044,1.4329,1.0786,0,0,11.7578,0,8.2005,1,1,1,1,0,0,0,0,0,0,0,1,0,0,0,1,Act-1
8.0644,1.4329,1.0641,1,0,11.8663,0,8.2005,1,1,1,1,0,0,0,0,0,0,0,0,0,0,0,1,Act1
8.182,1.416,1.1111,1,0,11.6958,0,8.2005,1,1,1,1,0,0,0,0,0,0,0,0,0,0,0,1,Act-1
7.2292,1.165,0.7647,0,0,6.8617,1,5.5285,0,1,1,1,0,0,0,0,0,0,0,1,0,0,0,0,Act-1
8.1278,1.2485,0.6516,0,0,4.9416,0,3,1,1,1,0,0,0,0,0,0,0,0,0,0,0,0,0,Act-1
7.3986,1.3424,1.0185,0,0,15.0514,0,6.425,0,1,1,1,1,0,0,0,0,0,0,1,0,1,0,1,Act1
7.7611,1.2934,0.8797,0,0,5.6742,0,6.4839,1,1,1,1,0,0,0,0,0,0,0,0,1,0,0,1,Act-1
8.337,1.2307,0.8169,0,0,3.1089,0,6.3053,1,1,1,1,0,0,0,0,0,0,0,0,0,0,0,0,Act-1
8.1912,1.2996,0.5142,0,0,3.2971,0,3.7798,1,1,0,0,0,0,0,0,0,0,0,0,0,0,0,0,Act-1
7.8237,1.3578,0.972,0,0,7.6955,0,17.0262,1,1,1,1,1,2,2,0,0,0,0,1,1,0,0,1,Act-1
8.0392,1.4,0.6961,0,0,11.2662,0,5.173,0,1,1,1,0,0,0,0,0,0,0,1,0,0,0,1,Act1
8.0392,1.4,0.6961,0,0,11.2662,0,5.173,0,1,1,1,0,0,0,0,0,0,0,1,0,0,0,1,Act-1
7.7255,1.4,0.8995,0,0,12.3079,0,6.4907,0,1,1,1,0,0,0,0,0,0,0,0,0,0,0,1,Act-1
7.4792,1.4473,0.9981,0,0,21.3256,2,11.0358,1,1,1,1,0,0,0,0,0,0,0,1,0,0,0,1,Act-1
7.56,1.4405,0.9614,0,0,12.576,0,6.5523,1,1,1,1,0,0,0,0,0,0,0,1,0,0,0,1,Act1
7.7407,1.3962,0.9932,0,0,12.2566,0,6.6375,0,1,1,1,0,0,0,0,0,0,0,0,0,0,0,1,Act-1
7.7523,1.4378,1.1624,0,1,7.3824,0,8.3961,1,1,1,1,1,0,0,0,0,0,0,1,0,0,0,1,Act-1
8.0513,1.4198,1.9254,0,0,5.2047,0,3,0,1,0,0,0,0,0,0,0,0,0,0,0,0,0,1,Act-1
7.8188,1.3,1.0076,0,0,16.6499,0,11.5786,0,1,1,1,0,0,0,0,0,0,0,0,0,0,0,1,Act-1
7.5307,1.1793,0.8629,0,0,7.9279,1,6.0422,0,1,1,1,0,0,0,0,0,0,0,1,1,0,0,0,Act-1
7.5725,1.3141,1.0874,0,0,11.7799,0,9.4805,0,1,1,1,0,0,0,0,0,1,0,0,0,0,0,1,Act1
7.5119,1.2813,0.9731,0,0,16.431,2,14.0331,0,1,0,1,0,0,0,0,0,0,0,1,1,0,0,1,Act-1
8.2256,1.4208,1.1623,1,0,14.768,0,11.657,1,1,1,1,0,0,0,0,0,0,0,0,1,1,0,1,Act1
8.2147,1.1807,0.9652,0,0,4.9189,0,6.5042,1,1,1,1,1,0,0,1,0,0,0,1,0,0,0,0,Act-1
8.1576,1.268,1.0523,0,0,4.3931,0,10.9243,0,1,1,1,0,0,0,0,0,0,0,0,1,0,0,1,Act-1
8.2346,1.293,1.094,0,0,4.4353,0,11.2619,0,1,1,1,0,0,0,0,0,0,0,0,0,0,1,1,Act-1
8.3611,1.2403,0.7008,0,0,4.7537,0,6.696,1,1,1,1,0,0,0,0,0,0,0,0,0,0,0,0,Act-1
8.2056,1.3149,0,0,0,5.0449,0,4.5032,1,1,0,0,0,0,0,0,0,0,0,0,0,0,0,0,Act-1
8.0513,1.4234,0.2488,0,0,5.3211,0,1.8899,0,1,0,0,0,0,0,0,0,0,0,0,0,0,0,1,Act-1
8.0513,1.4234,0.2488,0,0,5.2968,0,1.8899,0,1,0,0,0,0,0,0,0,0,0,0,0,0,0,1,Act-1
7.8241,1.3137,0.8852,0,0,15.3464,1,7.8775,0,1,1,1,0,1,1,0,0,0,0,1,1,0,1,1,Act-1
7.5575,1.4203,0.9554,0,0,22.2871,0,9.0416,0,1,1,1,0,0,0,0,0,0,0,0,1,0,0,1,Act-1
7.6667,1.3067,0.8507,0,0,16.0462,0,7.8775,0,1,1,1,0,1,1,0,1,0,0,0,1,0,1,1,Act-1
7.7438,1.3137,0.8915,0,0,15.7595,0,7.8775,0,1,1,1,0,0,0,0,0,0,0,0,1,0,0,1,Act-1
7.744,1.2049,0.6944,0,0,8.1334,0,9.1255,0,1,1,1,0,1,1,0,1,1,0,0,1,1,0,0,Act-1
8.037,1.2846,0,0,0,6.8379,0,2.7495,0,0,0,0,0,0,0,0,0,0,0,0,0,0,0,0,Act1
7.9402,1.4323,0.8837,0,0,17.9821,0,10.171,1,1,1,1,1,0,0,0,0,1,0,0,1,1,0,1,Act1
8.119,1.2359,0.9175,0,0,7.1398,0,2.7495,0,1,1,0,0,0,0,0,0,0,0,0,0,0,0,0,Act-1
8.2549,1.2289,1.1692,0,0,7.0323,0,2.7495,1,1,1,1,0,0,0,0,0,0,0,0,0,0,1,0,Act-1
7.6333,1.5295,1.0174,0,0,21.6665,0,11.4948,0,1,1,1,0,0,0,0,0,0,0,1,0,0,1,1,Act-1
7.7581,1.5236,1.0197,0,0,21.1247,0,11.4948,0,1,1,1,0,0,0,0,0,0,0,0,0,0,0,1,Act-1
7.65,1.5295,0.999,0,0,21.5799,0,11.4948,0,1,1,1,0,0,0,0,0,0,0,0,0,0,0,1,Act1
8.2585,1.4304,0.9256,0,1,7.4282,0,4.7622,1,1,1,1,1,0,0,0,0,0,0,0,0,0,0,1,Act1
7.6481,1.4199,0.8256,0,1,11.3762,0,8.5535,0,1,1,1,1,0,0,0,0,0,0,0,0,0,0,1,Act-1
8.2149,1.3501,0.9519,0,0,8.5525,0,3,1,1,1,1,2,0,0,0,0,0,0,0,0,1,1,1,Act-1
7.809,1.258,1.037,0,0,0,0,1,1,1,0,1,0,0,0,0,0,1,0,0,0,1,0,0,Act-1
8.2381,1.3052,0.9361,0,1,1.3767,1,0,1,1,1,1,0,0,0,0,0,1,0,0,1,1,1,1,Act-1
7.5495,1.5213,1.1236,0,0,32.81,0,10.4958,1,1,1,1,0,0,0,0,0,0,0,0,0,0,0,1,Act-1
8.2149,1.3613,1.0144,0,0,8.5785,0,3,1,1,1,1,1,1,1,0,0,1,0,0,0,0,1,1,Act-1
8.2024,1.349,0.9427,0,0,6.9365,0,3,0,1,1,1,1,0,0,0,0,1,0,0,0,1,1,1,Act-1
8.256,1.1652,1.1252,1,0,1.541,0,3,1,1,1,1,1,1,1,1,0,0,0,0,0,1,1,0,Act-1
8.1757,1.1487,1.056,0,0,1.5328,0,9.4494,1,1,1,1,1,1,1,1,0,0,0,0,0,1,1,0,Act-1
8.256,1.1652,1.1252,1,0,1.541,0,3,1,1,1,1,1,1,1,1,0,0,0,0,0,1,1,0,Act-1
8.096,1.3711,0.8112,0,0,6.2034,0,9.0163,0,1,1,1,0,0,0,0,0,0,0,1,1,0,0,1,Act-1
7.6842,1.1974,1.1072,0,0,7.8903,0,6.4571,0,1,1,1,0,0,0,0,0,0,0,0,0,0,0,0,Act-1
7.7178,1.1738,1.0302,0,0,1.6213,0,9.3598,0,1,1,1,0,0,0,0,0,0,0,0,0,1,1,0,Act1
7.8355,1.1587,1.09,0,0,5.9574,0,13.9476,1,1,1,1,0,0,0,0,0,0,0,0,0,1,1,0,Act-1
7.6207,1.426,1.0312,0,0,12.3408,0,7.6554,1,1,1,1,0,0,0,0,0,0,0,0,1,1,0,1,Act1
7.5714,1.4082,1.003,0,0,28.7518,0,8.9868,1,1,1,1,0,0,0,0,0,1,0,0,1,1,0,1,Act1
7.5404,1.4126,1.0375,0,0,31.1509,0,9.5271,1,1,1,1,0,0,0,0,0,1,0,0,1,1,0,1,Act1
7.5245,1.4075,1.0297,0,0,31.3474,0,10.5381,1,1,1,1,0,0,0,0,0,1,0,0,1,1,0,1,Act1
7.5741,1.395,0.9959,0,0,22.6359,0,9.6432,1,1,1,1,0,0,0,0,0,1,0,0,1,1,0,1,Act1
7.6207,1.3526,0.9414,0,0,20.1967,0,10.6019,1,1,1,1,0,1,1,0,0,0,0,0,0,0,0,1,Act1
7.9195,1.3135,1.1565,0,0,10.4174,0,7.7104,1,1,1,1,0,1,1,0,0,0,0,0,0,1,0,1,Act1
7.9524,1.4636,0.952,0,0,7.4202,0,3.8183,1,1,1,1,0,0,0,0,0,1,0,0,1,1,0,1,Act1
7.7143,1.3309,0.7861,0,0,9.0321,0,5.0536,1,1,1,1,0,0,0,0,0,1,0,0,1,0,0,1,Act1
7.9341,1.5778,1.0411,0,0,20.9131,0,18.5575,1,1,1,1,2,2,2,0,0,0,0,0,1,1,0,1,Act1
8.1151,1.3419,0.7795,0,0,10.4997,0,5.4507,1,1,1,1,2,0,0,0,0,0,0,1,0,1,0,1,Act-1
8.2238,1.177,1.1216,1,0,1.5289,0,6,1,1,1,1,1,1,1,1,0,1,0,0,0,1,1,0,Act-1
8.8102,1.0298,0,0,0,0,0,1,0,0,0,0,0,0,0,0,0,0,1,0,0,0,0,0,Act-1
8.6086,1.1046,0,0,0,0,0,1,0,0,0,0,0,0,0,0,0,0,1,0,0,0,0,0,Act-1
7.7378,1.233,1.3116,0,0,5.8087,0,3.4389,0,1,0,0,0,0,0,0,0,0,1,0,0,0,0,0,Act1
8.1038,1.2371,0.8627,0,0,6.7466,0,2.8717,0,1,1,1,0,0,0,0,0,0,0,0,0,0,0,0,Act1
7.9391,1.4928,1.1546,0,0,15.1672,0,7.0392,1,1,1,1,0,0,0,0,0,1,0,0,1,1,0,1,Act1
8.0174,1.3279,1.1698,0,0,8.7065,1,8.3733,1,1,1,1,0,0,0,0,0,0,0,0,1,0,1,1,Act1
8.0174,1.3332,1.1193,0,0,8.7371,1,9.1761,1,1,1,1,0,0,0,0,0,0,0,0,1,0,1,1,Act1
8.0174,1.3487,1.2044,0,0,8.7631,1,9.2631,1,1,0,1,0,0,0,0,0,0,0,0,1,0,1,1,Act1
8.1272,1.3572,0.9474,0,0,4.7857,0,7.3978,0,1,1,1,0,0,0,0,0,0,0,0,0,0,0,1,Act1
8.0053,1.6097,0.9284,0,0,18.2218,0,11.7438,1,1,1,1,1,1,1,0,0,1,0,0,1,1,0,1,Act1
8.6971,1.2314,0.9527,0,0,5.2612,0,5.681,0,1,1,1,0,0,0,0,0,0,0,0,0,0,0,0,Act-1
8.6019,1.2314,1.0384,0,0,5.4539,0,5.681,0,1,1,1,0,0,0,0,0,0,0,0,0,0,0,0,Act-1
8.0038,1.4784,0.9163,0,1,15.4375,0,5.9528,0,1,0,1,0,1,1,0,0,1,0,0,1,1,0,1,Act1
8.4325,1.4017,0.9425,0,0,12.2204,0,7.2939,0,1,1,1,0,0,0,0,0,0,0,0,0,0,0,1,Act-1
7.7212,1.1643,0.9313,0,0,5.8284,0,8.7443,0,1,1,1,0,0,0,0,0,0,0,1,1,0,0,0,Act-1
8.3548,1.3205,0.7973,0,0,10.644,0,8.0026,0,1,1,1,0,0,0,0,0,0,0,0,1,0,0,1,Act-1
9.1563,1.0799,0.5332,0,0,0,0,0,0,1,1,0,0,0,0,0,0,0,1,0,0,0,0,0,Act-1
8.8452,1.0936,0.6372,0,0,0,0,1,0,1,1,0,0,0,0,0,0,0,1,0,0,0,0,0,Act-1
8.5784,1.0744,0.9482,0,0,0,0,1,0,1,1,1,0,0,0,0,0,0,1,0,0,0,0,0,Act-1
7.8285,1.616,0.9798,0,1,21.4338,0,11.1088,0,1,1,1,1,0,0,0,0,1,0,0,0,0,0,1,Act1
7.7816,1.6148,0.9742,0,1,21.9106,0,11.2687,0,1,1,1,1,0,0,0,0,1,0,0,0,0,0,1,Act1
7.4063,1.2627,0.8782,0,0,17.3087,0,15.2401,0,1,1,1,1,0,0,0,0,0,0,0,1,0,0,1,Act1
8.2057,1.5304,0.8082,0,0,13.2623,0,12.3159,0,1,1,1,0,1,1,0,0,1,0,0,1,1,1,1,Act1
8.2292,1.2083,1.0854,1,0,15.0963,1,13.9907,1,1,1,1,0,2,2,0,0,0,0,0,0,0,1,1,Act-1
8.3344,1.2714,1.081,2,0,22.1211,0,16.4308,1,1,1,1,0,7,7,0,0,0,1,0,0,0,1,1,Act-1
8.8024,1.2634,0.8885,0,1,1.1367,0,5.7435,1,1,1,1,1,0,0,0,0,1,1,0,1,1,0,1,Act1
10.2778,1,0,0,0,0,0,1,0,0,0,0,0,0,0,0,0,0,0,0,0,0,0,0,Act-1
11.2212,1,0.8014,0,0,0,0,0,0,1,0,0,0,0,0,0,0,0,0,0,0,0,0,0,Act-1
11.475,1,0,0,0,0,0,0,0,0,0,0,0,0,0,0,0,0,0,0,0,0,0,0,Act-1
11.5147,1,0,0,0,0,0,0,0,0,0,0,0,0,0,0,0,0,0,0,0,0,0,0,Act1
10.6528,1,0,0,0,0,0,0,0,0,0,0,0,0,0,0,0,0,0,0,0,0,0,0,Act1
10.6528,1,0,0,0,0,0,0,0,0,0,0,0,0,0,0,0,0,0,0,0,0,0,0,Act-1
8.2201,1.4284,0.8061,0,1,7.5411,0,4.7622,1,1,1,1,1,0,0,0,0,0,0,0,0,0,0,1,Act-1
8.4107,1.2295,0.8444,1,0,0,0,3.9057,0,1,1,1,0,0,0,0,0,0,0,0,1,1,0,0,Act-1
8.1026,1.232,1.0163,1,0,1.1519,0,4.7622,0,1,1,1,0,0,0,0,0,0,0,0,1,1,0,0,Act-1
8.1282,1.232,0.9504,1,0,1.1253,0,3,1,1,1,1,0,0,0,0,0,0,0,0,1,1,0,0,Act-1
8.7593,1.3957,1.2294,0,0,6.6435,0,4.7759,0,1,1,0,0,0,0,0,0,0,0,0,1,0,0,1,Act-1
8.0064,1.2205,1.1655,1,0,2.9769,0,5.6998,0,1,1,1,0,0,0,0,0,0,0,0,1,1,0,0,Act-1
8.1042,1.2398,1.0333,1,0,2.8906,0,4.1799,0,1,1,1,0,0,0,0,0,0,0,0,1,1,0,0,Act-1
8.2246,1.2508,0.9667,1,0,1.0979,0,4.7622,0,1,1,1,0,0,0,0,0,1,0,0,1,1,0,0,Act-1
8.3467,1.2447,0.7648,1,0,0.9458,0,7.5786,0,1,1,1,0,0,0,0,0,0,0,0,1,1,0,0,Act-1
8.2841,1.3056,0.9827,0,0,8.4195,0,2.7495,1,1,0,1,0,0,0,0,0,0,0,0,0,1,0,1,Act-1
8.0903,1.1873,0.983,0,0,4.7154,0,4.7622,1,1,1,1,0,1,1,0,0,0,0,0,1,1,0,0,Act-1
8.1812,1.2508,0.9731,1,0,2.8057,0,4.3528,0,1,1,1,0,0,0,0,0,0,0,0,1,1,0,0,Act-1
8.2241,1.3286,1.2462,1,0,8.0902,0,5.4103,0,1,1,1,0,0,0,0,0,0,0,0,1,1,0,1,Act-1
8.2679,1.3336,1.1776,1,0,8.0478,0,5.4103,0,1,1,1,0,0,0,0,0,0,0,0,1,1,0,1,Act-1
8.3421,1.2653,0.9162,1,0,2.5484,0,4.9155,0,1,1,0,0,0,0,0,0,0,0,0,0,0,0,0,Act-1
7.7278,1.3497,1.3105,0,0,23.7146,0,12.32,0,1,0,1,0,0,0,0,0,0,0,1,0,0,0,1,Act-1
7.7389,1.3497,1.3593,0,0,23.6293,0,12.32,0,1,0,1,0,0,0,0,0,0,0,0,0,0,0,1,Act1
7.816,1.3229,1.3909,0,0,12.2806,0,6.268,1,1,0,1,0,0,0,0,0,0,0,0,1,0,0,1,Act-1
7.7292,1.2853,1.0103,0,0,12.4806,0,8.2386,0,1,1,1,0,0,0,0,0,0,0,0,1,0,0,1,Act-1
7.7083,1.2853,0.9908,0,0,12.557,0,8.2386,0,1,1,1,0,0,0,0,0,0,0,1,1,0,1,1,Act-1
7.5735,1.483,0.9716,0,1,23.2803,0,12.1723,0,1,0,1,0,0,0,0,0,0,0,0,0,1,0,1,Act-1
7.9583,1.2681,0.413,0,0,4.8314,0,3.7798,0,1,0,0,0,0,0,0,0,0,0,0,0,0,0,0,Act-1
7.8122,1.3643,1.0167,0,1,10.6236,0,5.3917,0,1,0,1,2,0,0,0,0,0,0,0,1,0,0,1,Act1
7.7389,1.3699,1.0168,0,1,12.9932,0,5.3156,0,1,0,1,2,0,0,0,0,0,0,0,1,0,0,1,Act-1
7.7464,1.028,0.9658,0,0,0,0,7.0727,1,1,1,1,0,0,0,0,0,0,0,0,0,0,1,0,Act-1
7.7348,1.0298,1.0343,0,0,0,0,6.3586,1,1,1,1,0,0,0,0,0,0,0,0,0,0,0,0,Act-1
9.5769,1.2414,0,0,0,0,0,0,0,0,0,0,0,0,0,0,0,0,0,1,0,1,0,0,Act-1
8.2308,1.3647,1.0993,0,0,9.6701,0,6.4927,0,1,1,1,0,1,1,0,1,0,0,0,1,1,0,1,Act1
7.6232,1.4269,1.0635,0,0,9.2723,0,8.3463,0,1,0,1,0,0,0,0,0,1,0,0,1,1,0,1,Act1
9.2464,1.234,0.4029,0,0,0,0,2.7495,1,1,1,0,0,0,0,0,0,0,0,1,0,1,0,0,Act-1
8.1494,1.2297,1.2086,1,0,1.0788,0,4.1799,0,1,1,1,0,0,0,0,0,0,0,0,1,1,0,0,Act1
7.886,1.5099,1.0595,0,0,12.0564,0,4.5113,0,1,0,1,0,0,0,0,0,1,0,0,1,1,0,1,Act-1
8.4247,1.3205,0.8068,0,0,10.2354,1,8.0026,0,1,1,1,0,1,1,0,0,0,0,1,1,0,1,1,Act-1
9.0688,1.2833,0.7042,2,0,2.1381,0,3.7798,0,1,1,1,0,0,0,0,0,0,0,0,0,1,0,0,Act-1
7.9561,1.3733,1.2949,0,0,12.3374,0,6.5467,0,1,1,1,0,0,0,0,0,0,0,0,0,0,0,1,Act-1
7.697,1.4887,0.9875,0,0,15.6394,1,14.1773,1,1,1,1,0,0,0,0,0,0,0,0,1,0,1,1,Act1
8.619,1.4443,0.2122,0,0,3.9818,0,3,1,0,1,0,0,0,0,0,0,0,0,0,0,1,0,1,Act-1
8.1389,1.434,0.2222,0,0,5.0736,1,3,0,0,0,0,0,0,0,0,0,0,0,0,0,0,1,1,Act-1
8.1065,1.4362,0,0,1,5.2731,0,3.7798,0,0,0,0,0,0,0,0,0,1,0,1,0,0,0,1,Act-1
9.3504,1.3355,1.6358,0,0,0.9094,0,3.9203,1,1,1,1,3,0,0,0,0,1,0,0,1,1,1,1,Act1
8.25,1.2194,0.6112,0,0,8.716,0,5.2569,1,1,1,0,0,0,0,0,0,0,0,0,1,1,1,0,Act-1
9.4286,1.1558,0,0,0,0,0,0,1,0,0,0,0,0,0,0,0,0,0,1,0,0,0,0,Act-1
7.5167,1.2629,0.6402,0,0,7.8087,0,3.7798,0,1,0,0,0,0,0,0,0,0,0,0,0,1,0,0,Act-1
7.3254,1.401,0.9554,0,0,17.7475,0,6.0594,0,1,0,1,0,0,0,0,0,0,0,0,0,0,0,1,Act-1
7.4259,1.3309,0.9584,0,0,18.6632,0,6.9177,0,1,0,1,0,0,0,0,0,0,0,0,0,0,0,1,Act-1
7.7917,1.4379,0,0,0,9.4954,0,2.8717,0,0,0,0,0,0,0,0,0,1,0,0,0,1,1,1,Act-1
8.0972,1.2992,0,0,0,7.2988,0,2.8717,0,0,0,0,0,0,0,0,0,0,0,0,0,1,1,0,Act-1
8.2755,1.1993,1.0267,1,0,8.8057,0,8.5256,1,1,1,1,0,0,0,1,0,0,0,0,0,0,1,0,Act-1
8.2894,1.1993,1.0286,1,0,8.7837,0,8.3204,1,1,1,1,1,0,0,1,0,0,0,0,0,0,1,0,Act-1
8.2097,1.2418,0.9963,1,0,7.4726,0,9.6528,1,1,1,1,3,1,1,1,0,0,0,0,0,1,1,1,Act-1
9.5185,1.0821,0,2,0,0,0,0,0,0,0,0,0,0,0,0,0,0,0,0,0,0,1,0,Act-1
8.0664,1.3518,1.2715,1,0,8.7537,1,7.9767,0,1,1,1,0,0,0,0,0,0,0,0,0,0,1,1,Act1
8.0819,1.2153,1.1031,1,0,7.6321,1,6.5427,0,1,1,1,0,0,0,0,0,0,0,0,0,0,1,0,Act-1
8.6786,1.2483,0.2974,1,0,4.0925,1,2.8717,0,1,1,0,0,0,0,0,0,0,0,0,0,0,1,0,Act-1
8.8778,1.0613,1.0605,2,0,0,0,1,1,1,1,1,1,0,0,0,0,0,0,0,0,0,1,0,Act-1
8.8583,1.0516,1.1911,2,0,0,0,3.7798,1,1,1,1,2,1,1,0,0,0,0,1,0,0,1,0,Act-1
8.5758,1.0331,0.2277,1,0,0,1,1,0,1,1,0,1,0,0,0,0,0,0,0,0,0,1,0,Act-1
8.8333,1.0487,0.6098,2,0,0,0,0,0,1,1,0,2,0,0,0,0,0,0,0,0,0,1,0,Act-1
7.4833,1.2452,0,0,0,10.4794,0,4.1689,0,0,0,0,0,0,0,0,0,0,0,0,1,0,1,0,Act-1
8.1152,1.2313,0.9322,1,0,1.1256,1,8.1527,0,1,1,1,0,0,0,0,0,0,0,0,1,1,1,0,Act1
8.5714,1.0533,0,0,0,0,0,0,0,0,0,0,0,0,0,0,0,0,0,0,0,1,1,0,Act-1
8.1,1.3752,0.6581,1,0,9.5695,0,4.3952,0,1,1,0,0,0,0,0,0,0,0,0,0,0,1,1,Act-1
8.4697,1.2135,0,1,1,3.1178,0,0,1,0,0,0,0,0,0,0,0,0,0,0,0,1,1,0,Act-1
8.2639,1.2607,0.2638,1,0,9.3425,0,3.3889,0,1,1,0,0,0,0,0,0,0,0,0,0,0,1,0,Act-1
9.2667,1.0726,0,2,0,0,0,1,1,0,0,0,0,0,0,0,0,0,0,0,0,0,1,0,Act-1
9.4286,1.0558,0,1,0,0,0,0,0,0,0,0,0,0,0,0,0,0,0,0,0,0,1,0,Act-1
8.4556,1.3187,1.0519,1,0,3.6164,0,7.2817,0,1,1,1,0,0,0,0,0,1,0,0,1,1,1,1,Act-1
8.8056,1,0,0,0,0,0,0,0,0,0,0,0,0,0,0,0,0,0,0,0,0,1,0,Act-1
8.2927,1.2215,0.8593,1,0,1.0147,1,8.1261,0,1,1,1,0,0,0,0,0,0,0,0,1,1,1,0,Act1
9.0451,1.2624,0,0,0,1.6873,0,2.7495,0,0,0,0,0,0,0,0,0,0,0,1,0,0,1,0,Act-1
8.7756,1.444,1.3459,0,0,10.5836,1,6.8529,0,1,1,1,0,0,0,0,0,0,0,1,1,1,1,1,Act-1
8.0556,1.4741,0.8933,0,0,12.0534,0,7.808,1,1,1,1,0,0,0,0,0,1,0,0,0,0,1,1,Act1
7.84,1.3295,1.1542,0,0,14.4184,0,11.3928,0,1,1,1,0,0,0,0,0,1,0,0,0,0,1,1,Act1
7.913,1.3473,0.9342,0,0,14.1778,0,9.6616,0,1,1,1,0,0,0,0,0,1,0,0,0,0,1,1,Act1
7.9133,1.3448,0.8724,0,0,10.5421,0,9.29,0,1,1,1,0,0,0,0,0,1,0,0,0,0,1,1,Act-1
8.1706,1.3412,0.9547,0,0,5.1305,0,3.5541,0,1,0,0,0,0,0,0,0,0,0,0,0,0,1,0,Act1
8.6074,1.2628,0.4778,0,0,0,0,0,0,1,0,0,0,0,0,0,0,1,0,0,0,1,1,0,Act-1
8.337,1.2631,1.0244,0,0,4.9769,0,3.7669,0,1,0,0,0,0,0,0,0,0,0,0,0,0,1,0,Act-1
7.8433,1.2676,1.1484,0,0,8.0609,0,3.4973,0,1,0,0,0,0,0,0,0,0,0,0,0,0,1,0,Act-1
7.7167,1.0182,1.2082,0,0,0,0,2.8717,1,1,0,1,0,0,0,0,0,0,0,0,0,0,1,0,Act1
8.125,1.1375,1.0462,1,0,12.3456,0,14.6482,1,1,1,1,0,9,9,0,0,0,0,0,0,0,1,1,Act-1
8.2635,1.1219,1.0788,0,0,14.4168,1,17.9287,1,1,1,1,1,9,9,0,0,0,0,0,0,1,1,1,Act-1
8.2076,1.2064,1.0659,1,0,8.9394,0,16.228,1,1,1,1,1,8,8,0,0,0,0,0,0,0,1,1,Act-1
8.0494,1.0326,0.8915,0,0,0,0,13.204,1,1,1,1,0,1,1,0,0,0,0,0,0,1,1,0,Act-1
7.5476,1.0208,0.896,0,0,0,0,3.5961,0,1,0,1,0,0,0,0,0,0,0,0,0,0,1,0,Act-1
8.6012,1.2755,0.5009,0,0,5.574,0,3,0,1,0,0,2,0,0,0,0,0,0,0,0,0,1,0,Act-1
7.8889,1.4947,0.9531,0,0,14.3577,0,9.9115,0,1,0,1,0,0,0,0,0,0,0,0,0,1,0,1,Act-1
7.6875,1.3647,0.8539,0,0,19.274,0,7.0871,0,1,0,1,0,0,0,0,0,0,0,0,0,0,0,1,Act-1
7.8987,1.2376,0.9926,0,0,13.9099,0,9.9655,0,1,0,1,0,4,4,0,0,0,0,0,0,1,0,1,Act1
8.2778,1.1172,0.2552,0,0,0,0,1.8899,1,1,1,0,0,0,0,0,1,1,0,0,0,1,0,0,Act-1
8.1979,1.1276,0.8361,0,0,0,0,0,1,1,1,0,0,0,0,0,1,1,0,0,0,1,0,0,Act-1
8.3333,1.0829,0,0,0,0,0,0,0,0,0,0,0,0,0,0,1,1,0,0,0,1,0,0,Act-1
7.7963,1.457,0.5945,0,0,15.4069,0,6.5728,0,1,0,0,0,0,0,0,1,0,0,0,0,0,1,1,Act-1
7.4556,1.3784,0.5699,0,0,8.1456,0,6.5558,0,1,0,0,0,0,0,0,0,0,0,0,0,1,1,1,Act-1
7.8261,1.3473,0.9885,0,0,14.6319,0,9.6616,0,1,1,1,0,0,0,0,0,1,0,1,0,0,1,1,Act-1
8.2704,1.2631,1.0323,0,0,5.0205,0,3.7669,0,1,0,0,0,0,0,0,0,0,0,1,0,0,1,0,Act-1
8.5792,1.2197,0.5167,0,0,3.5155,1,4.5032,1,1,1,0,0,0,0,0,1,0,0,0,0,0,1,0,Act-1
8.9069,1.0643,0.9293,0,0,0,0,1,1,0,1,0,0,0,0,0,1,0,1,1,0,0,1,0,Act-1
7.5495,1.2769,0.8261,0,0,26.7471,0,11.9277,1,1,1,1,0,0,0,0,0,0,0,0,0,0,1,1,Act1
7.8673,1.1412,0.88,0,0,5.7228,0,11.3146,1,1,1,1,0,0,0,0,0,0,0,0,1,1,1,0,Act-1
7.4812,1.2855,0.8329,0,0,15.0914,0,12.7366,1,1,1,1,0,1,1,0,0,0,0,0,1,1,1,1,Act1
7.4268,1.2873,0.8259,0,0,17.7569,0,12.1996,1,1,1,1,0,1,1,0,0,0,0,0,1,1,1,1,Act1
9.2111,1.3282,0,0,0,2.5249,0,2.7495,1,0,0,0,0,0,0,0,0,0,0,0,0,1,1,0,Act-1
8.4884,1.2755,1.0814,0,0,13.1196,0,13.2576,1,1,1,1,2,1,1,1,0,0,1,1,0,1,1,1,Act-1
8.8675,1.3117,0.0001,0,0,3.4826,2,3.3892,0,0,0,0,0,0,0,0,0,0,0,0,0,0,1,0,Act-1
8.5,1.3039,0,0,0,6.1521,0,2.8717,0,0,0,0,0,0,0,0,0,0,0,0,0,0,1,0,Act-1
8.4259,1.3139,0,0,0,4.2171,0,0,0,0,0,0,0,0,0,0,0,0,0,0,0,1,1,0,Act-1
9.1061,1.2906,0,0,0,0.6823,0,0,0,0,0,0,0,0,0,0,0,0,0,0,0,1,1,0,Act-1
8.6852,1.169,0.8476,0,1,1.0514,1,0,1,1,1,0,0,0,0,0,0,0,0,0,1,1,1,0,Act-1
8.598,1.1686,0.9882,0,0,1.1532,1,0,1,1,1,0,0,0,0,0,0,1,0,0,1,1,1,0,Act-1
8.1053,1.377,0.968,0,0,13.9067,1,7.3876,1,1,1,1,0,0,0,0,0,0,0,0,0,0,1,1,Act-1
7.7222,1.0253,1.3182,0,0,0,0,4.5032,0,1,1,0,0,0,0,0,0,0,0,0,0,0,1,0,Act1
8.4333,1.0694,0,0,0,0,0,1,1,0,0,0,0,0,0,0,0,0,0,0,0,0,1,0,Act-1
8,1.3841,0.5994,0,0,14.3477,0,6.6723,0,1,0,0,0,0,0,0,1,0,0,0,0,0,1,1,Act1
8.3462,1.2664,0.8901,0,0,9.1214,0,3.3889,0,1,1,0,0,0,0,0,1,0,0,0,0,0,1,0,Act-1
8.7902,1.2727,0.9657,0,0,5.2614,0,3,0,0,1,0,0,0,0,0,1,0,1,0,0,0,1,0,Act-1
8.9722,1.1138,1.7107,0,0,0,0,0,1,0,1,0,0,0,0,0,1,1,1,0,0,1,1,0,Act-1
9.0303,1.0926,0,0,0,0,0,0,1,0,0,0,0,0,0,0,1,1,0,0,0,1,1,0,Act-1
9.7333,1.0805,0,0,0,0,0,0,0,0,0,0,0,0,0,0,1,0,0,0,0,0,1,0,Act-1
8.3431,1.2208,1.033,0,0,9.1775,0,3.3889,0,1,1,0,0,0,0,0,0,0,0,0,0,0,1,0,Act-1
8.3403,1.2223,1.1676,0,0,6.6809,0,2.8717,1,1,1,1,0,0,0,0,0,0,0,0,0,0,1,0,Act-1
8.506,1.2755,0.8096,0,0,5.7025,0,3,0,1,0,0,1,0,0,0,0,0,0,0,0,0,1,0,Act-1
8.9688,1,0,0,0,0,0,0,0,0,0,0,0,0,0,0,0,0,0,0,0,0,1,0,Act-1
8.6481,1.2221,1.2824,0,0,2.5723,0,1.8899,1,1,1,1,0,0,0,0,0,0,0,0,0,1,1,0,Act-1
9.0317,1.0558,0,1,0,0,0,0,0,0,0,0,1,0,0,0,0,0,0,0,0,0,1,0,Act-1
9.0909,1.0648,0.0001,2,0,0,0,0,0,0,0,0,1,0,0,0,0,0,0,0,0,0,1,0,Act-1
8.3651,1,0.994,0,0,0,7,0,1,1,1,1,0,0,0,0,0,0,0,0,0,1,1,0,Act-1
8.1212,1.0296,0.0482,1,0,0,2,2.8717,0,0,0,0,0,0,0,0,0,0,0,0,0,0,1,0,Act-1
8.0152,1.1936,0.9334,1,0,7.0505,2,9.5579,0,1,1,1,0,0,0,0,0,0,0,0,0,0,1,0,Act-1
8.2708,1,0.9594,0,0,0,4,1,1,1,1,1,0,1,1,0,0,0,0,0,0,1,1,0,Act-1
8.4242,1,1.0002,0,0,0,4,0,1,1,1,1,0,1,1,0,0,0,0,0,0,1,1,0,Act-1
8.3763,1,1.0306,0,0,0,5,0,1,1,1,1,0,0,0,0,0,0,0,0,0,1,1,0,Act-1
7.4825,1.3909,0.5588,0,0,17.0968,0,6.4928,0,1,0,0,0,0,0,0,0,0,0,0,0,0,1,1,Act-1
7.6296,1.1932,1.0059,0,0,4.0457,0,7.5836,1,1,1,1,0,0,0,0,0,0,0,1,0,1,1,0,Act-1
7.6574,1.1932,0.9929,0,0,4.0006,0,7.5836,1,1,1,1,0,0,0,0,0,0,0,0,0,1,1,0,Act-1
8.2632,1.377,0.9827,0,0,13.4832,0,7.3876,1,1,1,1,0,0,0,0,0,0,0,1,0,0,1,1,Act-1
7.8462,1.3062,0.9677,0,0,5.7733,0,7.5825,1,1,1,1,0,0,0,0,0,0,0,0,0,0,1,0,Act-1
7.4222,1.3784,0.5782,0,0,8.2836,0,6.5558,0,1,0,0,0,0,0,0,0,0,0,1,0,1,1,1,Act-1
7.4556,1.3784,0.5699,0,0,8.1456,0,6.5558,0,1,0,0,0,0,0,0,0,0,0,0,0,1,1,1,Act1
7.5889,1.5554,0.6515,0,0,15.8907,0,6.5558,0,1,0,0,0,0,0,0,0,0,0,0,0,1,1,1,Act-1
8.9083,1.3053,0.2886,0,0,1.6399,0,4.3037,0,0,1,0,1,0,0,0,0,0,0,0,0,1,1,0,Act-1
7.9333,1.2085,0.3422,0,0,1.5781,0,3.7798,1,1,1,0,0,0,0,0,0,1,0,1,1,1,1,0,Act-1
7.6818,1.4494,0,0,0,11.6638,0,3.3889,0,0,0,0,0,0,0,0,0,1,0,0,0,0,1,1,Act-1
7.8542,1.4845,1.0201,0,0,12.713,0,6.3233,0,1,0,1,0,0,0,0,0,1,0,0,0,1,1,1,Act-1
8.5476,1.2592,0.8606,1,0,6.2266,0,2.8717,0,1,1,0,0,0,0,0,0,0,0,0,0,0,1,0,Act-1
8.5,1.2983,0,0,0,6.0578,0,2.8717,0,0,0,0,0,0,0,0,0,0,0,0,0,0,1,0,Act-1
8.7424,1.2906,0,0,0,3.8871,0,3,1,0,0,0,0,0,0,0,0,0,0,0,0,0,1,0,Act-1
8.2598,1.3631,0.8201,0,0,10.1808,0,5,0,1,0,1,2,0,0,0,0,0,0,1,0,1,1,1,Act-1
8.2939,1.3425,0.9195,0,0,13.7335,0,7.2383,0,1,1,1,0,0,0,0,0,0,0,0,0,0,1,1,Act-1
8.2886,1.3564,0.8358,0,0,8.6724,0,7.7336,1,1,0,1,1,1,1,0,0,1,0,0,0,0,1,1,Act-1
8.1716,1.3631,0.8825,0,0,12.464,0,6.6683,0,1,0,1,1,0,0,0,0,1,0,0,0,0,1,1,Act-1
8.0038,1.4598,0.8113,0,0,18.418,0,9.1683,1,1,1,1,1,1,1,0,0,1,0,0,1,1,1,1,Act1
8.2031,1.3311,0.8926,0,0,9.2041,0,5,0,1,0,1,1,0,0,0,0,0,0,0,0,0,1,1,Act-1
8.6136,1.3056,0,0,0,5.7032,0,3,0,0,0,0,0,0,0,0,0,0,0,0,0,0,1,0,Act-1
7.8939,1.2698,0,0,0,5.484,0,1.8899,0,0,0,0,0,0,0,0,0,0,0,0,0,1,1,0,Act-1
8.425,1.2308,0.7056,0,0,4.6003,1,6.5886,1,1,1,1,0,0,0,0,0,0,0,0,1,1,1,0,Act-1
8.2018,1.2231,0.7185,0,0,5.1667,1,6.5886,1,1,1,1,0,0,0,0,0,0,0,0,1,1,1,0,Act-1
8.4222,1.2377,0.9622,0,0,6.4783,1,2.8717,0,1,1,1,0,0,0,0,0,0,0,0,0,0,1,0,Act-1
7.881,1.3154,0,0,0,7.0913,0,1.8899,0,0,0,0,0,0,0,0,0,1,0,0,0,0,1,0,Act-1
8.5392,1.1337,0.9134,0,0,0,1,0,1,1,1,0,0,0,0,0,1,1,0,0,1,1,1,0,Act-1
8.9213,1.1293,0.9209,0,0,0,0,0,1,1,1,0,0,0,0,0,1,1,0,0,1,1,1,0,Act-1
8.1667,1.1444,0.8899,0,0,0,0,3,1,1,1,0,0,0,0,0,1,1,0,0,1,1,1,0,Act-1
8.7485,1.1546,0.8822,0,0,0,1,0,1,1,1,0,0,0,0,0,1,1,1,0,0,1,1,0,Act-1
8.3,1.1444,0.7717,0,0,0,1,0,1,1,1,0,0,0,0,0,1,1,0,0,1,1,1,0,Act-1
8.5172,1.3374,1.0697,1,0,3.5568,1,7.2396,0,1,1,1,0,0,0,0,0,1,0,0,1,1,1,1,Act-1
7.881,1.3154,0,0,0,6.8241,0,1,0,0,0,0,0,0,0,0,0,0,0,0,0,1,1,0,Act-1
7.6795,1.6381,1.0331,0,0,17.4677,0,8.5359,0,1,0,1,0,0,0,0,0,1,0,0,1,1,1,1,Act-1
7.9389,1.4601,1.1542,0,0,12.2262,1,7.3342,0,1,0,1,0,0,0,0,0,1,0,0,0,1,1,1,Act-1
7.8684,1.4651,1.2432,0,0,14.5177,0,7.7667,0,1,0,1,0,0,0,0,0,1,0,0,0,1,1,1,Act-1
7.9028,1.5555,1.2894,0,0,13.8891,0,7.9343,1,1,0,1,0,3,3,0,0,1,0,0,1,1,1,1,Act-1
9,1.2008,0,0,0,0,0,0,0,0,0,0,0,0,0,0,1,1,0,0,0,1,1,0,Act-1
8.0056,1.3255,0.3998,0,0,9.4429,0,5.0763,0,1,1,0,0,0,0,0,0,0,0,0,1,1,1,0,Act-1
8.4902,1.2551,1.0125,0,0,6.0014,1,6.3233,1,1,1,1,0,1,1,0,0,1,0,1,0,1,1,0,Act-1
8.3548,1.3534,0.9544,2,0,8.3048,0,9.5628,1,1,1,1,0,0,0,0,0,1,0,0,0,1,1,1,Act-1
8.4063,1.3738,1.0566,2,0,7.64,0,6.3233,1,1,1,1,0,1,1,0,0,1,0,0,0,1,1,1,Act-1
8.25,1.2385,1.1832,0,1,1.5094,0,1,1,1,1,0,0,0,0,0,0,1,0,0,0,1,1,0,Act-1
8.5,1.1395,1.1002,0,0,0,0,0,1,1,1,0,1,0,0,0,1,1,0,0,1,1,1,0,Act-1
7.7917,1.3752,0.9661,0,0,19.1733,0,13.4213,0,1,1,1,0,0,0,0,0,0,0,0,0,1,1,1,Act-1
8.1462,1.3131,1.0247,0,1,1.5032,0,1,1,1,1,0,0,0,0,0,0,1,0,0,1,1,1,1,Act-1
8.5,1.307,1.3102,0,1,1.2455,1,0,1,1,1,0,0,0,0,0,0,1,0,0,1,1,1,1,Act-1
7.9035,1.5074,0.79,0,0,9.4726,0,2.8717,0,1,0,1,0,0,0,0,0,1,0,0,1,1,1,1,Act-1
8.0764,1.3967,0.4681,0,0,4.9532,0,3.2616,0,1,0,0,0,0,0,0,0,1,0,0,1,1,1,1,Act1
7.6984,1.3466,0.8042,0,1,1.7834,0,3.9721,1,1,1,1,0,0,0,0,0,1,0,0,1,1,1,1,Act-1
8.3611,1.2421,1.5882,0,1,1.3732,0,0,1,1,1,0,0,0,0,0,0,1,0,0,0,1,1,0,Act-1
8.2604,1.2523,1.2588,0,1,1.4342,0,0,1,1,1,0,0,0,0,0,0,1,0,0,0,1,1,0,Act-1
8.85,1.356,0.7107,0,0,3.8979,0,3.7798,1,1,0,0,0,0,0,0,0,0,0,0,0,0,1,1,Act1
7.9848,1.2874,0,0,1,1.5285,0,0,0,0,0,0,1,0,0,0,0,1,0,0,0,1,1,0,Act-1
8.598,1.1337,1.0055,0,0,0,1,0,1,1,1,0,0,0,0,0,1,0,0,0,1,1,1,0,Act-1
8.4271,1.1388,1.0107,0,0,0,0,0,1,1,1,0,0,0,0,0,1,0,0,0,1,1,1,0,Act-1
7.95,1.4131,0,0,1,2.9361,0,0,0,0,0,0,0,0,0,0,0,1,0,0,0,1,1,1,Act-1
8.279,1.2881,0.8453,0,1,2.6727,1,0,1,1,1,0,0,0,0,0,0,1,1,0,1,1,1,1,Act-1
8.2544,1.3118,0.9814,0,1,2.6738,1,0,1,1,1,0,0,0,0,0,0,1,0,0,1,1,1,1,Act-1
8.0764,1.4001,0.8109,0,0,5.1341,0,3.7044,0,1,0,0,0,0,0,0,0,1,0,0,1,1,1,1,Act1
9.037,1.0821,0,1,0,0,0,1,0,0,0,0,0,0,0,0,0,0,0,0,0,0,1,0,Act-1
8.2424,1.2536,0.0506,0,0,6.3355,1,2.8717,0,0,0,0,0,0,0,0,0,0,0,0,0,0,1,0,Act1
8.45,1.0048,1.0336,0,0,0,4,1,1,1,1,1,0,2,2,0,0,0,0,0,0,1,1,0,Act-1
8.0347,1.0252,0,1,0,0,0,3.3889,1,0,0,0,0,0,0,0,0,0,0,0,0,0,1,0,Act-1
8.172,1,0.942,0,0,0,4,3,1,1,1,1,0,1,1,0,0,0,0,0,0,1,1,0,Act-1
8.4792,1.2927,0.0845,0,0,6.1613,2,2.8717,0,0,0,0,0,0,0,0,0,0,0,0,0,0,1,0,Act-1
9.6432,1.0532,0,0,0,0,0,0,1,0,0,0,0,0,0,0,0,0,1,0,0,0,1,0,Act-1
8.5069,1.0739,1.1171,0,0,0,4,6,1,1,1,1,0,9,9,0,1,0,0,0,1,1,1,0,Act-1
7.7708,1.2273,0,0,1,3.5118,0,0,0,0,0,0,0,0,0,0,0,0,0,0,0,1,1,0,Act-1
9.3125,1.0298,0,1,0,0,0,1,0,0,0,0,0,0,0,0,0,0,0,0,0,0,1,0,Act-1
8.6667,1.0419,0,1,0,0,0,1,0,0,0,0,0,0,0,0,0,0,0,0,0,0,1,0,Act-1
9.5258,1.0487,0,0,0,0,0,1,1,0,0,0,0,0,0,0,0,0,1,1,0,0,1,0,Act-1
7.8874,1.3085,1.0683,0,0,43.3184,1,18.4044,1,1,1,1,0,5,5,0,0,0,0,0,1,0,1,1,Act1
8.1092,1.1445,1.0867,2,0,9.5701,2,11.1692,0,1,1,1,0,0,0,0,0,0,0,0,0,0,1,0,Act1
8.2083,1.1186,1.1105,0,0,17.3181,2,17.9258,1,1,1,1,2,10,10,0,0,0,0,0,0,1,1,1,Act-1
8.3078,1.1112,1.1379,0,0,13.8121,2,17.8108,1,1,1,1,2,13,13,0,0,0,0,0,0,1,1,1,Act-1
8.4074,1.0419,0.0508,1,0,0,2,2.7495,0,0,0,0,0,0,0,0,0,0,0,0,0,0,1,0,Act-1
8.4699,1.0298,1.1524,0,0,0,0,0,1,0,1,0,1,0,0,0,0,0,1,0,0,1,1,0,Act-1
8.1624,1.2532,0.8574,0,0,4.6101,0,3,1,1,0,0,0,0,0,0,0,0,0,0,0,0,1,0,Act-1
7.9722,1.3654,0.9815,0,0,8.0829,2,5.4749,1,1,1,1,0,1,1,0,0,0,0,0,0,0,1,1,Act-1
7.7,1,1.0963,0,0,0,0,0,0,1,0,0,0,1,1,0,0,0,0,0,0,0,1,0,Act-1
7.6154,1,1.0807,0,0,0,0,0,0,1,0,1,0,2,2,0,0,0,0,0,0,0,1,0,Act-1
8.2833,1.2932,0,0,0,6.2356,0,1.8899,1,0,0,0,0,0,0,0,0,0,0,0,0,0,1,0,Act-1
7.7917,1.4379,0,0,0,9.4954,0,2.8717,0,0,0,0,0,0,0,0,0,1,0,0,0,1,1,1,Act-1
7.6167,1.2629,0.4754,0,0,10.2696,0,3.3889,0,0,0,0,0,0,0,0,0,0,0,0,0,0,1,0,Act-1
8.5728,1.3399,0.99,0,0,6.8476,0,7.5854,0,1,1,1,0,0,0,0,0,0,0,1,0,0,1,1,Act-1
8.0012,1.1723,1.0596,0,0,4.1207,1,8.8449,0,1,1,1,0,0,0,0,0,0,0,0,0,0,1,0,Act-1
8.5251,1.3399,0.949,0,0,6.9904,0,7.5854,0,1,1,1,0,0,0,0,0,0,0,0,0,0,1,1,Act-1
8.8056,1.3185,0.982,0,0,9.5731,0,8.0272,0,1,1,1,1,0,0,0,0,1,0,0,0,1,1,1,Act-1
9.3125,1.2517,0.4757,0,0,0.801,0,3,0,0,1,0,1,0,0,0,0,0,0,0,0,1,1,0,Act-1
8.2799,1.3812,1.0009,0,0,11.8444,0,9.9625,0,1,1,1,3,0,0,0,0,1,0,0,0,1,1,1,Act1
8.8007,1.3281,0.4232,0,0,2.0113,0,1.8899,0,0,1,0,1,0,0,0,0,0,0,0,0,1,1,0,Act-1
8.725,1.246,1.0909,0,0,2.0081,0,5,0,1,1,0,1,0,0,0,0,1,0,0,0,1,1,0,Act-1
8.2477,1.2312,0.8394,0,0,2.3098,0,7.2199,0,1,1,1,1,0,0,0,0,1,0,0,1,1,1,0,Act-1
8.338,1.336,0.8997,0,0,11.5524,0,8.5514,0,1,1,1,1,0,0,0,0,1,0,0,0,1,1,1,Act-1
8.3512,1.4027,0.3647,0,0,7.0295,0,2.8717,1,0,1,0,1,0,0,0,0,0,0,0,0,1,1,1,Act-1
7.9064,1.31,0.9985,0,0,12.9875,0,8.7443,0,1,1,1,0,1,1,0,0,0,0,0,1,0,1,1,Act-1
7.9074,1.3574,0.9991,0,0,22.2375,0,9.2937,0,1,1,1,0,0,0,0,0,0,0,0,0,0,0,1,Act-1
7.5794,1.2824,1.1321,0,0,9.6018,0,9.1683,0,1,1,1,0,0,0,0,0,0,0,0,0,0,0,1,Act-1
7.7153,1.2591,1.1006,0,0,9.5072,0,9.8869,0,1,1,1,0,0,0,0,0,0,0,0,0,0,0,1,Act-1
7.6533,1.4738,0.9303,0,0,13.6077,0,6.5767,1,1,1,1,0,0,0,0,0,0,0,0,0,0,0,1,Act-1
7.7315,1.4356,1.1255,0,1,7.3393,0,8.3961,1,1,1,1,1,0,0,0,0,0,0,0,0,0,0,1,Act-1
7.8264,1.4962,0.8943,1,0,2.0566,0,9.8464,0,1,1,1,0,0,0,0,0,0,0,0,0,0,0,0,Act-1
7.9804,1.4,0.7584,1,0,11.4257,0,5.173,0,1,1,1,0,0,0,0,0,0,0,0,0,0,0,1,Act-1
7.74,1.3373,0.885,0,0,17.2031,0,13.4922,0,1,1,1,0,0,0,0,0,0,0,0,0,0,0,1,Act-1
7.6389,1.2694,1.1357,0,0,11.8772,0,10.5212,0,1,1,1,0,0,0,0,0,0,0,0,0,0,0,1,Act-1
7.8651,1.3538,1.2063,0,0,5.3285,2,2.8717,0,1,1,1,0,0,0,0,0,1,0,0,0,1,1,1,Act-1
7.84,1.3295,1.1542,0,0,14.4184,0,11.3928,0,1,1,1,0,0,0,0,0,1,0,0,0,0,1,1,Act-1
7.6842,1.1974,1.1072,0,0,7.8903,0,6.4571,0,1,1,1,0,0,0,0,0,0,0,0,0,0,0,0,Act-1
7.6889,1.4376,0.8498,0,1,11.2977,0,10.2094,0,1,1,1,1,0,0,0,0,0,0,0,0,0,0,1,Act-1
7.6667,1.1841,0.9105,0,0,7.7287,0,6.9386,0,1,1,1,0,0,0,0,0,0,0,0,0,0,0,0,Act-1
8.451,1.424,0.7873,2,0,8.7431,0,8.9941,0,1,1,1,0,0,0,0,0,0,0,0,0,0,0,1,Act-1
7.7632,1.2322,1.1184,0,0,7.3983,0,10.8586,0,1,1,1,0,0,0,0,0,0,0,0,0,0,0,0,Act-1
7.6759,1.3373,0.9963,0,0,9.7106,0,6.5042,0,1,1,1,0,0,0,0,0,0,0,0,0,0,0,1,Act-1
7.5606,1.1827,1.2159,0,0,8.0424,0,11.251,0,1,1,1,0,0,0,0,0,0,0,0,0,0,0,0,Act-1
7.8843,1.2179,1.1282,1,0,6.0965,0,8.5486,0,1,1,1,0,0,0,0,0,0,0,0,0,0,0,0,Act-1
7.8235,1.2139,1.1165,0,0,6.7422,0,6.3998,1,1,1,1,0,1,1,0,0,0,0,0,0,0,1,0,Act-1
8.2604,1.2482,1.0815,0,1,1.4455,0,0,1,1,1,0,0,0,0,0,0,1,0,0,0,1,1,0,Act-1
8.046,1.2799,0.8352,0,0,8.7917,0,10.437,0,1,1,1,0,0,0,0,0,0,0,0,0,0,0,1,Act1
7.75,1.4711,0.9561,0,0,26.9035,0,11.0909,0,1,1,1,0,0,0,0,0,0,0,0,1,0,0,1,Act1
8.6528,1,0,0,0,0,0,1,0,0,0,0,0,0,0,0,0,0,0,0,0,0,0,0,Act-1
9.1667,1,0,0,0,0,0,0,0,0,0,0,0,0,0,0,0,0,0,0,0,0,0,0,Act-1
8.2333,1,0,0,0,0,0,0,0,0,0,0,0,0,0,0,0,0,0,0,0,0,0,0,Act-1
8.9333,1,0,0,0,0,0,0,0,0,0,0,0,0,0,0,0,0,0,0,0,0,0,0,Act-1
8.2193,1.2631,0.9653,0,0,6.7877,0,2.7495,1,1,1,1,0,0,0,0,0,0,0,0,0,1,0,0,Act-1
8.7259,1.2595,1.3521,0,0,5.4112,0,3,0,1,1,0,0,0,0,0,0,0,1,0,0,0,0,0,Act-1
9.0893,1.11,0,0,0,0,0,0,0,0,0,0,0,0,0,0,0,0,0,0,0,0,0,0,Act-1
11.198,1.161,0,0,0,0,0,0,0,0,0,0,0,0,0,0,0,0,1,1,0,0,0,0,Act-1
8.2124,1.2808,0.706,0,0,5.1593,0,3.7798,0,1,1,0,0,0,0,0,0,0,0,0,0,1,0,0,Act-1
8.316,1.4014,0,0,0,7.8882,0,5.387,0,1,0,0,0,0,0,0,0,0,0,0,1,0,0,1,Act1
9.2545,1.3009,0,0,0,2.5194,0,3,1,0,0,0,0,0,0,0,0,0,1,0,0,0,0,0,Act-1
8.5756,1.301,0,0,0,2.6628,0,2,1,0,0,0,0,0,0,0,0,0,0,0,0,0,0,0,Act1
8.3148,1.4643,1.0318,0,0,8.0205,0,7.4222,1,1,1,1,0,0,0,0,0,0,0,0,0,0,0,1,Act-1
8.2018,1.4466,1.0731,0,0,12.7943,0,5.7423,1,1,1,1,0,0,0,0,0,0,0,0,0,0,0,1,Act1
9.1111,1.3499,0,0,0,4.5935,0,2.7495,1,0,0,0,0,0,0,0,0,0,0,0,0,1,0,0,Act1
8.5741,1.3456,0,0,0,7.9338,0,2.8717,0,0,0,0,0,0,0,0,0,0,0,0,0,0,0,0,Act1
8.7549,1.2145,0.606,0,1,2.5653,0,0,1,1,1,0,0,0,0,0,0,0,0,0,0,0,0,0,Act-1
8.8958,1.0684,0.3376,0,0,0,0,0,0,0,0,0,0,0,0,0,0,0,1,0,0,0,0,0,Act-1
9.5595,1.109,0,0,0,0,0,0,1,0,0,0,0,0,0,0,0,0,1,0,0,0,0,0,Act-1
9.1579,1.0946,0.0001,0,0,0,0,0,1,0,1,0,0,0,0,0,0,0,1,0,0,1,0,0,Act-1
9.1597,1.2762,0,0,0,2.8265,0,3,0,0,0,0,0,0,0,0,0,0,1,1,0,0,0,0,Act-1
8.7583,1.2932,0,0,0,7.4222,0,2.8717,0,0,0,0,0,0,0,0,0,0,1,1,0,0,0,0,Act-1
8.6026,1.3788,0.9891,0,0,7.5442,0,9.5289,0,1,1,1,0,0,0,0,0,0,0,1,0,0,0,1,Act-1
8.2992,1.4041,0.8777,0,0,14.6152,1,8.6263,0,1,1,1,0,0,0,0,0,0,0,1,0,0,0,1,Act-1
9.3009,1.324,1.706,0,0,5.1867,0,4.3952,0,1,1,0,0,0,0,0,0,0,0,1,0,0,0,0,Act-1
8.2976,1.3048,0.9568,0,0,5.1865,0,3.5446,0,1,1,0,0,0,0,0,0,0,0,1,0,0,0,0,Act-1
9.5385,1.0271,0.0001,0,0,0,0,0,0,0,0,0,0,0,0,0,0,0,0,1,0,0,0,0,Act-1
8.7727,1.2995,0,0,0,7.7447,0,2.8717,0,0,0,0,0,0,0,0,0,0,0,1,0,0,0,0,Act-1
7.8889,1.2907,0.8813,0,0,11.2754,0,7.8384,0,1,1,1,0,0,0,0,0,0,0,1,0,0,0,1,Act-1
9.4889,1.0228,0.1597,0,0,0,0,0,0,1,1,0,0,0,0,0,0,0,0,1,0,0,0,0,Act-1
8.5071,1.2743,1.058,0,0,8.1188,0,9.8554,1,1,1,1,4,2,2,1,0,0,1,1,0,1,0,1,Act-1
8.2401,1.4308,1.6895,0,0,1.5509,0,8.0706,0,1,1,1,0,0,0,0,0,0,0,1,1,0,0,1,Act1
8.7424,1.4699,1.1684,0,0,6.9494,0,5.7423,1,1,1,1,0,0,0,0,0,0,0,1,0,0,0,1,Act-1
8.5098,1.424,0.7921,0,0,8.5886,0,8.9941,0,1,1,1,0,0,0,0,0,0,0,1,0,0,0,1,Act-1
8.8148,1.3957,1.2495,0,0,6.4616,0,4.7759,0,1,1,0,0,0,0,0,0,0,0,1,1,0,0,1,Act-1
8.3333,1.4545,0.8828,0,0,7.8822,0,7.3335,1,1,1,1,0,0,0,0,0,0,0,1,0,1,0,1,Act-1
8.2759,1.606,1.0875,0,0,16.5782,0,8.6668,0,1,1,1,0,0,0,0,0,0,0,1,0,0,0,1,Act-1
8.2056,1.3202,0.8725,0,0,20.3874,0,9.3969,1,1,1,1,0,0,0,0,0,0,0,1,0,0,0,1,Act1
8.5139,1.4186,0.7689,0,0,10.0425,0,7.4488,0,1,1,1,0,0,0,0,0,0,0,1,0,0,0,1,Act-1
9.9038,1.0782,0,0,0,0,0,1,0,0,0,0,0,0,0,0,0,0,0,1,0,0,0,0,Act-1
9.963,1.0821,0,0,0,0,0,0,0,0,0,0,0,0,0,0,0,0,0,1,0,0,0,0,Act-1
8.1433,1.4057,0.9714,0,0,12.1821,0,6.952,1,1,1,1,0,0,0,0,0,0,0,1,0,0,0,1,Act1
8.7984,1.2132,0.8969,0,0,4.8213,0,6.2613,1,1,1,1,0,0,0,0,0,0,0,1,0,0,0,0,Act-1
8.1528,1.2607,0.6546,0,0,9.8428,0,5.0401,0,1,1,0,0,0,0,0,0,0,0,1,0,0,0,0,Act-1
8.4792,1.0088,0.9818,0,0,0,0,7.2917,0,1,1,1,0,0,0,0,0,0,0,1,0,0,0,0,Act-1
7.9683,1.4563,0.8988,0,0,17.4731,0,7.6923,1,1,1,1,0,0,0,0,0,0,0,1,0,1,0,1,Act-1
10.8532,1.11,0,0,0,0,0,0,0,0,0,0,0,0,0,0,0,0,1,1,0,0,0,0,Act-1
7.9278,1.1257,1.0207,1,0,9.8387,0,11.8066,0,1,1,1,0,0,0,0,0,0,0,0,0,0,0,0,Act-1
7.6567,1.2683,0.9559,0,0,17.1472,0,8.7838,1,1,1,1,0,0,0,0,0,0,0,0,0,1,1,1,Act-1
7.8913,1.506,0.9295,0,0,12.6781,0,7.3144,0,1,1,1,0,1,1,0,0,1,0,0,1,1,0,1,Act1
8.022,1.2462,1.0674,0,0,3.2195,0,11.1985,1,1,1,1,0,0,0,0,0,0,0,0,0,1,0,0,Act-1
7.7778,1.4352,0.836,0,0,19.2698,0,10.292,0,1,1,1,0,0,0,0,0,0,0,0,0,0,0,1,Act-1
7.9792,1.3415,1.0969,0,0,11.6486,0,13.8289,1,1,1,1,0,0,0,0,0,0,0,0,0,0,0,1,Act-1
7.5185,1.1869,1.1717,0,0,7.927,0,9.8643,0,1,1,1,0,0,0,0,0,0,0,0,0,0,0,0,Act-1
8.2012,1.3127,1.1395,0,0,6.2869,0,13.4088,0,1,1,1,0,0,0,1,0,0,0,0,1,1,0,1,Act1
8.0345,1.2817,0.9881,0,0,12.6429,0,12.6618,1,1,1,1,0,0,0,0,1,0,0,0,0,1,0,1,Act1
7.7206,1.5091,1.1372,0,0,19.2194,0,12.652,0,1,1,1,0,0,0,0,0,0,0,0,1,0,0,1,Act-1
7.9583,1.3647,1.0614,0,0,17.7485,0,7.8354,0,1,0,1,0,0,0,0,0,0,0,0,0,0,0,1,Act-1
8.0614,1.3227,1.0233,1,0,12.5155,0,7.5453,0,1,1,1,0,0,0,0,0,0,0,0,0,0,0,1,Act1
7.7857,1.3984,0.9068,0,0,18.6087,0,7.0059,0,1,0,1,0,0,0,0,0,0,0,0,0,0,0,1,Act1
7.6232,1.1757,0.9174,0,0,8.3669,0,8.4738,1,1,1,1,0,0,0,0,0,0,0,0,0,0,0,0,Act-1
7.5972,1.1736,0.9177,0,0,8.4347,0,8.9191,1,1,1,1,0,0,0,0,0,0,0,0,0,0,0,0,Act1
8.2833,1.2932,0,0,0,6.2356,0,1.8899,1,0,0,0,0,0,0,0,0,0,0,0,0,0,1,0,Act-1
7.8088,1.3501,0.9436,0,0,14.0055,0,6.0982,1,1,0,1,0,0,0,0,0,0,0,0,0,0,0,1,Act-1
8.3148,1.3139,0,0,0,6.3097,0,1.8899,0,0,0,0,0,0,0,0,0,0,0,0,0,1,1,0,Act-1
8.0476,1.2526,0.9758,0,0,14.8637,0,12.6632,1,1,1,1,1,0,0,1,0,0,0,1,0,1,0,1,Act-1
7.9271,1.038,1.1058,0,0,0,0,3.7798,1,1,1,1,0,0,0,0,0,0,0,0,0,0,0,0,Act-1
7.9177,1.2669,0.9418,0,0,13.1433,0,13.0596,1,1,1,1,0,0,0,0,0,0,0,1,1,0,0,1,Act-1
7.4167,1.2653,1.0548,0,0,17.0095,0,15.4816,1,1,1,1,0,0,0,0,0,0,0,0,0,0,0,1,Act1
7.8988,1.3224,0.9129,0,0,13.3909,0,13.3441,1,1,1,1,0,0,0,0,1,0,0,0,1,1,0,1,Act1
7.8782,1.2669,1.0074,0,0,13.5825,0,13.0596,1,1,1,1,0,0,0,0,0,0,0,0,1,0,0,1,Act-1
7.8477,1.2405,0.8805,0,0,15.8093,0,13.2279,1,1,1,1,0,0,0,0,0,0,0,0,1,1,0,1,Act1
7.6275,1.3825,0.9038,0,0,23.5688,0,12.5104,1,1,1,1,0,0,0,0,0,0,0,0,1,0,0,1,Act1
7.7986,1.2753,0.9663,0,0,13.5915,0,11.4008,1,1,1,1,0,0,0,0,0,1,0,0,1,0,0,1,Act-1
8.0921,1.2664,0.806,0,0,3.4246,0,5.0455,1,1,1,1,0,0,0,0,0,0,0,0,0,0,0,1,Act1
8.2632,1.3495,1.0069,0,1,12.1184,0,2.8717,1,1,1,1,0,0,0,0,0,0,0,0,0,0,0,1,Act-1
8.2202,1.2188,0.9704,0,0,2.8674,0,2.7495,1,1,1,1,2,1,1,1,0,0,0,1,0,1,0,1,Act-1
9.3056,1.0298,0.0001,0,0,0,0,0,0,0,0,0,0,0,0,0,0,0,0,0,0,0,0,0,Act-1
8.1429,1.3466,1.4153,0,0,4.9605,0,3.8183,1,1,1,1,0,0,0,0,0,0,0,0,0,1,0,0,Act-1
8.1809,1.2873,1.0018,0,0,3.3643,0,3.8886,1,1,1,1,0,0,0,0,0,0,0,0,0,0,0,1,Act-1
8.4259,1.3139,0,0,0,4.2171,0,0,0,0,0,0,0,0,0,0,0,0,0,0,0,1,1,0,Act-1
8.7111,1.238,0.7729,0,0,5.0778,0,5.681,0,1,1,1,0,0,0,0,0,0,0,0,0,0,0,0,Act-1
7.8838,1.4641,1.0113,0,0,21.3154,0,11.8328,1,1,1,1,0,0,0,0,0,1,0,0,1,1,0,1,Act1
7.7692,1.3257,1.0344,0,0,12.2956,0,6.3233,1,1,1,1,0,1,1,0,0,1,0,0,0,1,0,1,Act-1
9.3611,1.3008,1.0147,0,0,3.5403,0,8.5386,1,1,1,1,0,0,0,0,1,0,0,0,0,0,0,1,Act1
8.203,1.3387,0.7678,1,0,13.2356,0,11.2644,0,1,1,1,0,0,0,0,0,0,0,0,0,0,0,1,Act-1
8.2906,1.3235,1.1699,0,0,6.636,0,7.4885,1,1,1,1,0,0,0,0,0,0,0,0,0,1,0,1,Act1
7.5128,1.3804,0.999,0,0,20.1529,0,14.5314,0,1,1,1,0,1,1,0,0,0,0,1,0,1,0,1,Act-1
8.6061,1.3882,0.8408,0,0,10.647,0,5.7423,0,1,1,1,0,0,0,0,1,0,0,0,0,0,0,1,Act-1
7.9956,1.3579,0.8882,0,0,10.4273,0,8.2084,0,1,1,1,0,0,0,0,0,0,0,0,0,0,0,1,Act1
8.6578,1.3327,0.8708,0,0,9.3783,0,8.0165,0,1,0,1,0,0,0,0,1,0,0,0,0,0,0,1,Act-1
8.1961,1.3712,1.0068,0,0,12.3991,0,7.4182,1,1,1,1,0,0,0,0,0,0,0,0,0,0,0,1,Act1
7.9074,1.5468,1.2459,0,0,13.6286,0,7.1548,1,1,0,1,0,2,2,0,0,0,0,0,1,1,0,1,Act-1
7.8478,1.5328,1.1567,0,0,15.8112,0,7.4182,1,1,0,1,0,0,0,0,0,0,0,0,1,1,0,1,Act-1
7.7963,1.4685,1.1573,0,0,16.4916,0,7.2383,0,1,0,1,0,0,0,0,0,0,0,0,0,1,0,1,Act-1
7.8125,1.5479,1.0211,0,0,16.207,0,7.2383,1,1,0,1,0,0,0,0,0,0,0,0,0,1,0,1,Act-1
7.8478,1.557,1.2581,0,0,15.8233,0,7.4182,1,1,0,1,0,2,2,0,0,0,0,0,1,1,0,1,Act-1
7.8241,1.494,0.8075,0,0,22.2219,0,17.2426,1,1,1,1,0,0,0,0,0,1,0,0,1,1,0,1,Act-1
7.6795,1.3742,0.9047,0,0,15.265,0,7.0871,0,1,0,1,0,0,0,0,1,1,0,0,1,0,0,1,Act-1
7.7963,1.4727,1.1455,0,0,16.4863,0,7.7667,0,1,0,1,0,0,0,0,0,0,0,0,0,1,0,1,Act-1
7.5256,1.3804,0.9872,0,0,20.0895,0,14.5314,0,1,1,1,0,1,1,0,0,0,0,0,0,1,0,1,Act1
8.225,1.4911,1.1694,0,0,26.4299,0,17.2405,0,1,1,1,0,0,0,0,0,0,0,0,1,1,0,1,Act1
8.4857,1.2024,1.3541,0,0,0,0,2,1,1,1,1,0,0,0,0,0,0,0,0,0,0,0,0,Act-1
8.8571,1.188,0.7903,0,0,2.9199,0,8.2614,1,1,1,1,0,0,0,0,0,0,0,0,0,0,0,0,Act1
8.0153,1.2496,1.0063,0,0,10.438,0,6.5751,1,1,1,1,1,1,1,0,0,0,0,0,1,1,0,1,Act1
8.5889,1.2559,1.0669,0,0,6.176,0,1.8899,1,1,1,0,0,0,0,0,0,0,1,0,0,1,0,0,Act-1
8.8395,1.0598,0.6553,0,0,0,0,0,1,1,1,1,0,2,2,0,1,1,0,0,0,1,0,0,Act-1
8.2383,1.2015,0.8327,0,0,5.5879,0,5.8436,1,1,1,1,1,0,0,0,1,0,0,0,0,0,0,0,Act-1
8.8167,1.2559,0.9817,0,0,5.7261,0,1.8899,1,1,1,0,1,0,0,0,0,0,1,1,0,0,0,0,Act-1
9.5972,1.1686,0,3,0,0,0,1.8899,0,0,0,0,0,0,0,0,0,0,0,0,0,0,0,0,Act-1
8,1.4019,1.0951,1,1,13.1398,0,4.1689,0,1,1,1,0,0,0,0,0,0,0,0,0,0,0,1,Act-1
8.2576,1.3675,0.3787,1,0,9.3056,0,4.1689,0,1,1,0,0,0,0,0,0,0,0,0,0,0,0,0,Act-1
9.6667,1.203,0,2,0,0,0,1,0,0,0,0,0,0,0,0,0,0,0,0,0,0,0,0,Act-1
9.3444,1.0726,0,2,0,0,0,0,0,0,0,0,0,0,0,0,0,0,0,0,0,0,0,0,Act-1
8.5606,1.2757,0,1,0,8.2625,0,2.8717,0,0,0,0,0,0,0,0,0,0,0,0,0,0,0,0,Act-1
8.6548,1.096,0,1,0,0,0,1,1,0,0,0,0,0,0,1,0,0,0,0,0,0,0,0,Act-1
9.2564,1.0243,0,1,0,0,0,0,0,0,0,0,0,0,0,0,0,0,0,0,0,0,0,0,Act-1
8.4608,1.3663,0.7249,1,0,6.4589,0,2.8717,0,1,1,0,0,0,0,0,0,1,0,0,1,1,0,1,Act-1
9.5357,1.0558,0,1,0,0,0,1,0,0,0,0,0,0,0,0,0,0,0,0,0,0,0,0,Act-1
9.9,1.0726,0,2,0,0,0,0,0,0,0,0,0,0,0,0,0,0,0,0,0,0,0,0,Act-1
8.3244,1.5328,1.0168,0,0,15.7488,0,9.463,1,1,1,1,1,1,1,0,0,1,0,0,0,0,0,1,Act1
8.7593,1.3957,1.2294,0,0,6.6435,0,4.7759,0,1,1,0,0,0,0,0,0,0,0,0,1,0,0,1,Act1
9.1111,1.2775,0,0,0,1.6893,0,1.8899,0,0,0,0,0,0,0,0,0,0,0,0,0,0,0,0,Act-1
8.4516,1.4679,1.2365,0,0,11.9259,0,7.8615,0,1,1,1,0,0,0,0,0,0,0,0,1,0,0,1,Act-1
8.7037,1.2393,0.0001,0,0,2.2603,0,1.8899,0,0,0,0,0,0,0,0,0,0,1,0,0,0,0,0,Act-1
9.1061,1.2875,0,0,0,0.8354,0,0,1,0,0,0,0,0,0,0,1,0,0,0,0,1,0,0,Act-1
8.0714,1.4665,1.0014,0,0,19.5494,0,8.503,1,1,1,1,0,0,0,0,0,1,0,0,1,1,0,1,Act1
7.7427,1.2019,1.0343,1,0,4.1143,0,7.0015,0,1,1,1,0,0,0,0,0,0,0,0,1,0,0,0,Act-1
8.1528,1.4764,1.0767,0,0,9.4628,0,7.7401,0,1,1,1,0,0,0,0,0,0,0,0,1,0,0,1,Act1
8.0833,1.3757,1.0391,0,0,20.2332,0,6.3917,0,1,1,1,0,0,0,0,0,0,0,0,0,0,0,1,Act1
8.4222,1.3039,0,0,0,6.5785,0,2.8717,0,0,0,0,0,0,0,0,0,0,0,0,0,0,0,0,Act1
8.537,1.3139,0,0,0,6.2031,0,1.8899,0,0,0,0,0,0,0,0,0,0,0,0,0,0,0,0,Act-1
8.1042,1.2398,1.0333,1,0,2.8906,0,4.1799,0,1,1,1,0,0,0,0,0,0,0,0,1,1,0,0,Act-1
9.2222,1.0726,0,1,0,0,0,0,0,0,0,0,0,0,0,0,0,0,0,1,0,0,0,0,Act-1
7.6429,1.2867,0.9283,1,0,18.9344,0,15.3015,0,1,1,1,0,0,0,0,0,0,0,0,1,0,0,1,Act1
8.0119,1.4355,0.3186,1,0,13.5482,0,4.4842,0,1,1,0,0,0,0,0,0,0,0,0,0,0,0,1,Act1
8.2833,1.2932,0,1,0,9.1291,0,3.3889,0,0,0,0,0,0,0,0,0,0,0,0,0,0,0,0,Act-1
7.9141,1.4371,0.9313,1,0,17.0333,0,9.471,1,1,1,1,0,0,0,0,0,0,0,0,1,0,0,1,Act1
8.0965,1.3848,1.001,1,0,17.1151,0,7.9581,0,1,1,1,0,0,0,0,0,0,0,0,1,0,0,1,Act-1
8.4601,1.3104,0.999,1,0,8.6543,0,6.7771,1,1,1,1,1,0,0,0,0,0,0,0,0,0,0,1,Act-1
7.8864,1.4441,1.0768,1,0,19.4597,0,7.7451,1,1,1,1,0,0,0,0,0,0,0,0,1,0,0,1,Act1
8.1042,1.0388,0.8899,1,0,0,0,4.5032,0,1,1,1,2,0,0,0,1,0,0,0,0,0,0,0,Act-1
7.9591,1.2153,1.1107,1,0,8.1425,0,8.7356,0,1,1,1,0,0,0,0,0,0,0,0,0,0,0,0,Act-1
9.0333,1.0726,0.0002,2,0,0,0,2.7495,0,0,0,0,0,0,0,0,0,0,0,0,0,0,0,0,Act-1
8.5641,1.0532,0.8383,2,0,0,0,5.2718,0,1,1,1,0,0,0,0,0,0,0,0,0,0,0,0,Act-1
7.7757,1.2263,0.9563,1,0,15.3736,0,11.3083,1,1,1,1,0,0,0,0,0,0,0,0,0,0,0,1,Act-1
8.4936,1.4501,1.0949,1,0,9.8884,0,8.3622,1,1,1,1,0,0,0,0,0,0,0,0,0,0,0,1,Act-1
8.3929,1.253,0.9298,1,0,8.679,0,5.6502,0,1,1,1,0,0,0,0,0,0,0,0,0,0,0,0,Act1
8.9383,1.0529,0.9256,5,0,0,0,0,0,1,1,1,0,0,0,0,0,0,0,0,0,0,0,0,Act-1
8.5,1.2664,0.6989,1,0,8.466,0,2.8717,0,1,1,0,0,0,0,0,0,0,0,0,0,0,0,0,Act-1
8.4133,1.2656,0.8509,1,0,6.9889,0,3.4973,0,1,1,0,0,0,0,0,0,0,0,0,0,0,0,0,Act-1
8.2343,1.3939,0.9893,1,0,12.1637,0,6.952,1,1,1,1,0,0,0,0,0,0,0,0,0,0,0,1,Act-1
8.3485,1.2757,0.3868,1,0,8.8411,0,2.8717,0,1,1,0,0,0,0,0,0,0,0,0,0,0,0,0,Act-1
7.7634,1.2255,0.8659,1,0,18.6397,0,7.5781,0,1,1,1,0,0,0,0,0,0,0,0,0,0,0,1,Act-1
8.5333,1.0633,1.0186,1,0,0,0,3,0,1,1,1,2,0,0,0,0,0,0,0,0,0,0,0,Act-1
7.5776,1.1633,1.1074,0,0,18.3371,1,11.4742,0,1,1,1,0,0,0,0,0,0,0,1,0,0,0,1,Act1
8.1167,1.2448,0.9545,0,0,32.3339,0,7.0964,0,1,1,1,0,0,0,0,0,0,0,0,0,0,0,1,Act-1
7.6136,1.2022,1.1456,0,0,21.0238,0,13.3295,1,1,1,1,0,0,0,0,0,0,0,1,0,0,0,1,Act1
7.4877,1.265,1.0237,0,0,18.8241,0,9.565,1,1,1,1,0,0,0,0,0,0,0,0,1,0,0,1,Act1
8.7481,1.2515,1.1332,0,0,4.1992,0,4.9744,0,1,1,1,0,0,0,0,0,0,0,0,0,0,0,1,Act-1
8.6967,1.3902,1.1609,0,0,8.5604,0,16.0895,0,1,1,1,0,0,0,0,0,0,0,0,0,0,0,1,Act1
7.7153,1.2591,1.1006,0,0,9.5072,0,9.8869,0,1,1,1,0,0,0,0,0,0,0,0,0,0,0,1,Act1
7.807,1.5054,1.0912,0,0,19.9022,0,8.7528,1,1,1,1,0,0,0,0,0,0,0,0,0,0,0,1,Act-1
8.0729,1.3788,1.0784,0,0,15.0061,0,7.8572,0,1,1,1,0,0,0,0,0,0,0,0,0,0,0,1,Act-1
8.4211,1.392,1.1939,0,0,11.662,0,7.8572,0,1,1,1,0,0,0,0,0,0,0,0,0,0,0,1,Act1
8.0996,1.2764,0.5421,0,0,23.5048,0,8.6004,0,1,1,1,0,0,0,0,0,0,0,0,0,0,0,1,Act1
8.5086,1.4991,0.8714,0,0,12.7685,0,8.2066,0,1,1,1,0,0,0,0,0,0,0,0,0,1,0,1,Act1
8.0427,1.5066,0.9739,0,0,15.721,0,8.7749,0,1,1,1,0,0,0,0,0,0,0,0,0,1,0,1,Act-1
8.0461,1.2413,0.8198,0,0,23.8387,0,12.5297,0,1,1,1,0,0,0,0,0,0,0,0,0,0,0,1,Act1
7.8125,1.3647,1.0493,0,0,18.6283,0,8.1837,0,1,1,1,0,0,0,0,0,0,0,0,0,0,0,1,Act-1
7.875,1.3647,1.0484,0,0,16.0701,0,7.5484,0,1,1,1,0,0,0,0,0,0,0,0,0,0,0,1,Act1
7.71,1.2416,1.023,0,0,17.9502,0,10.9177,1,1,1,1,0,0,0,0,0,0,0,0,0,0,0,1,Act1
8.4615,1.2593,0.6328,0,0,6.0813,0,2.8717,0,1,1,0,0,0,0,0,0,0,0,0,0,0,0,0,Act-1
8.1481,1.3428,1.0257,0,0,16.5741,0,8.1837,0,1,1,1,0,0,0,0,0,0,0,0,0,0,0,1,Act1
7.9667,1.3811,0.0001,0,0,9.7016,0,4.1689,0,1,1,0,0,0,0,0,0,0,0,0,0,0,0,0,Act1
8.7679,1.4288,0.966,0,0,6.3226,0,7.0855,0,1,1,1,0,0,0,0,0,0,1,1,1,0,0,1,Act-1
7.9167,1.4373,0.8394,0,0,14.4885,0,7.0871,0,1,1,1,0,0,0,0,0,0,0,0,1,0,0,1,Act-1
8.1556,1.292,0.9125,0,0,18.0229,0,10.4885,0,1,1,1,0,0,0,1,0,0,0,0,1,0,0,1,Act-1
7.4619,1.2169,0.8512,0,0,8.5355,0,14.9214,0,1,1,1,1,0,0,0,0,1,0,0,1,0,0,1,Act1
7.6012,1.126,0.8428,0,0,5.4147,0,9.1094,0,1,0,1,0,0,0,0,0,0,0,0,1,1,0,0,Act-1
8.3472,1.2793,0,0,0,6.5824,0,2.8717,0,0,0,0,0,0,0,0,0,0,0,1,0,0,0,0,Act-1
8.1616,1.2698,0,0,0,5.1212,0,3.7204,0,0,0,0,0,0,0,0,0,0,0,1,0,1,0,0,Act-1
8.6667,1.2902,0,0,0,3.9467,0,2.7495,1,0,0,0,0,0,0,0,0,0,0,1,0,1,0,0,Act-1
8.1616,1.2674,0,0,0,5.038,0,2.8717,0,0,0,0,0,0,0,0,0,0,0,1,0,1,0,0,Act-1
8.5152,1.2674,0,0,0,3.9307,0,3,0,0,0,0,0,0,0,0,0,0,0,1,0,1,0,0,Act-1
8.0379,1.2698,0,0,0,5.4839,0,3.3892,0,0,0,0,0,0,0,0,0,0,0,1,0,1,0,0,Act-1
8.1616,1.2698,0,0,0,5.1932,0,3.3892,0,0,0,0,0,0,0,0,0,0,0,1,0,1,0,0,Act-1
8.8194,1.1373,0,0,0,0,0,0,1,0,0,0,0,0,0,0,1,1,0,1,0,1,0,0,Act-1
8.4697,1.2674,0,0,0,3.9709,0,2.7495,0,0,0,0,0,0,0,0,0,0,0,0,0,1,0,0,Act-1
8.4853,1.0923,0.816,0,0,0,0,1,1,1,1,0,0,0,0,0,1,0,0,0,1,1,0,0,Act1
9.1625,1.0839,1.4527,0,0,0,0,1,1,1,1,0,0,0,0,0,1,0,0,0,1,1,0,0,Act-1
8.7941,1.0923,1.087,0,0,0,0,0,1,1,1,0,0,0,0,0,1,0,0,0,1,1,0,0,Act-1
8.4482,1.0923,1.1493,0,0,0,0,1,1,1,1,0,0,0,0,0,1,0,0,0,1,1,0,0,Act-1
8.5292,1.1086,0.9159,0,0,0,0,3,1,1,1,1,0,0,0,0,1,0,0,0,1,1,0,0,Act-1
8.5417,1.259,0,0,0,4.6729,0,3.3892,0,0,0,0,0,0,0,0,1,0,0,1,0,1,0,0,Act-1
8.2071,1.2674,0,0,0,4.9564,0,2.7495,0,0,0,0,0,0,0,0,0,0,0,0,0,0,0,0,Act-1
8.9167,1.259,0,0,0,3.1781,0,2.7495,0,0,0,0,0,0,0,0,1,0,0,1,0,1,0,0,Act-1
8,1.2785,0,0,0,7.4709,0,2.7495,0,0,0,0,0,0,0,0,1,0,0,0,0,0,0,0,Act-1
7.7204,1.2829,0.8974,0,0,13.3415,0,14.4585,0,1,1,1,0,0,0,0,1,0,0,0,1,1,0,1,Act1
7.4896,1.2827,0.992,0,0,29.5801,0,13.6499,0,1,1,1,0,1,1,0,1,0,0,0,0,1,0,1,Act-1
8.1458,1.2895,0.8079,0,0,13.0552,0,6.9966,1,1,1,1,0,0,0,0,1,0,0,0,1,0,0,1,Act-1
9.2778,1.1601,0,0,0,0,0,0,0,0,0,0,0,0,0,0,1,0,0,0,0,1,0,0,Act-1
8.3148,1.112,0.0493,0,0,0,0,1,1,1,1,0,0,0,0,0,1,0,0,0,0,1,0,0,Act-1
8.2,1.2982,0,0,0,1.4456,0,0,0,0,0,0,0,0,0,0,0,1,0,0,0,1,0,0,Act-1
8.386,1.2209,0.921,0,1,1.2989,0,0,1,1,1,0,0,0,0,0,0,1,0,0,1,1,0,0,Act-1
8.2917,1.4024,1.0791,0,0,8.4008,0,6.5582,0,1,1,1,0,0,0,0,0,0,0,0,1,0,0,1,Act-1
7.8755,1.2898,0.965,0,0,27.3194,0,11.5279,0,1,1,1,0,0,0,0,0,0,0,0,1,1,0,1,Act1
7.8889,1.3429,0.963,0,0,14.6278,0,11.4869,0,1,1,1,0,0,0,0,0,0,0,0,1,0,0,1,Act-1
9.2222,1.1009,0,0,0,0,0,0,0,0,0,0,0,0,0,0,0,0,0,1,0,0,0,0,Act-1
8.553,1.3822,1.1172,0,0,5.6409,0,7.0382,0,1,1,1,0,0,0,0,0,0,0,0,1,0,0,1,Act-1
8.2917,1.3884,1.1108,0,0,10.8307,0,7.6555,0,1,1,1,0,0,0,0,0,0,0,0,1,0,0,1,Act-1
7.4233,1.1747,0.6059,0,0,8.7546,0,7.0062,1,1,1,1,0,0,0,0,0,0,0,0,0,1,0,0,Act1
8.5866,1.1084,0.3226,0,0,0,0,0,0,0,1,0,0,0,0,0,0,0,1,0,0,1,0,0,Act-1
7.5833,1.3944,0.7401,0,1,11.9625,0,8.0073,0,1,0,1,0,0,0,0,0,1,0,0,0,0,0,1,Act-1
8.5227,1.3337,1.0776,0,0,5.8475,0,7.0382,0,1,1,1,0,0,0,0,0,0,0,0,1,0,0,1,Act-1
8.1458,1.338,1.0988,0,0,5.7412,0,6.4958,1,1,1,1,0,0,0,0,0,0,0,0,0,0,0,1,Act-1
8.3944,1.3088,1.1712,0,0,7.0627,0,6.1548,0,1,1,1,0,0,0,0,0,0,0,0,1,0,0,1,Act-1
8.098,1.3923,0.678,0,0,10.0494,0,6.1548,0,1,1,0,0,0,0,0,0,0,0,0,0,0,0,1,Act-1
8.276,1.093,0.1296,0,0,0,0,5.744,0,1,0,0,0,0,0,0,0,0,0,0,0,0,0,0,Act1
7.3712,1.1675,1.0684,0,0,6.4064,0,7.5493,1,1,0,1,0,0,0,0,0,0,0,0,1,0,0,0,Act-1
7.951,1.3749,1.0605,0,0,16.2389,0,7.233,0,1,0,1,0,0,0,0,0,0,0,0,1,0,0,1,Act-1
8.3519,1.3956,0.8436,0,0,8.9746,0,6.0572,0,1,1,0,0,0,0,0,0,0,0,0,0,0,0,1,Act-1
8,1.4109,0.7858,0,0,13.9026,0,6.3256,0,1,0,0,0,0,0,0,0,0,0,0,0,0,0,1,Act1
7.6917,1.3583,0.557,0,0,9.0214,0,5.1312,1,1,0,0,0,0,0,0,0,1,0,0,1,1,0,1,Act-1
9.1667,1.1601,0,0,0,0,0,0,0,0,0,0,0,0,0,0,1,0,0,1,0,1,0,0,Act-1
8.25,1.3429,1.1345,0,0,8.7774,0,7.1918,0,1,1,1,0,0,0,0,0,0,0,0,1,0,0,1,Act-1
7.7857,1.2745,0.89,0,0,10.2238,0,5.6725,0,1,1,1,0,0,0,0,0,0,0,0,0,1,0,0,Act-1
8.8,1.1885,0,0,0,0,0,0,0,0,0,0,0,0,0,0,0,0,0,0,0,0,0,0,Act-1
8.679,1.2008,0,0,0,0,0,1,0,0,0,0,0,0,0,0,0,0,0,0,0,0,0,0,Act-1
7.7133,1.1554,0.8252,0,0,3.6447,0,7.4416,1,1,1,1,0,0,0,0,0,0,0,0,0,0,0,0,Act-1
8.4444,1.1562,0,0,0,0,0,0,0,0,0,0,0,0,0,0,0,0,0,0,0,1,0,0,Act-1
8.7917,1.1748,0,0,0,0,0,0,0,0,0,0,0,0,0,0,1,0,0,0,0,1,0,0,Act-1
7.6161,1.1358,0.7858,0,0,5.4068,0,10.7869,0,1,0,1,0,0,0,0,0,0,0,0,1,1,0,0,Act-1
8.3788,1.2674,0,0,0,4.2988,0,3.7204,0,0,0,0,0,0,0,0,0,0,0,0,0,0,0,0,Act-1
8,1.3841,0.5994,0,0,14.3477,0,6.6723,0,1,0,0,0,0,0,0,1,0,0,0,0,0,1,1,Act-1
7.9,1.2785,0,0,0,7.747,0,3.5446,0,0,0,0,0,0,0,0,0,0,0,0,0,0,0,0,Act-1
8.8148,1.08,0,0,0,0,0,1,0,0,0,0,0,0,0,0,0,0,0,0,0,0,0,0,Act-1
8.8519,1.0779,0,1,0,0,0,1,0,0,0,0,0,0,0,0,0,0,0,0,0,0,0,0,Act-1
8.386,1.234,0.7517,0,0,6.4433,0,6.3532,1,1,1,1,0,0,0,0,0,0,0,0,1,0,0,0,Act-1
8.5,1.2335,1.0814,0,0,2.519,0,3.7204,0,1,1,1,0,0,0,0,0,0,0,0,0,0,0,0,Act-1
7.5802,1.2932,1.0113,0,0,5.8953,0,13.0279,1,1,1,1,0,0,0,0,0,1,0,0,1,1,0,1,Act1
7.7706,1.2782,0.833,0,0,11.1643,0,15.4741,1,1,1,1,0,1,1,0,0,0,0,1,1,0,0,1,Act-1
7.6296,1.2835,0.8328,0,0,11.7961,0,15.4741,1,1,1,1,0,1,1,0,0,0,0,0,1,0,0,1,Act-1
7.5161,1.4179,0.7446,0,0,16.9211,0,15.3134,1,1,1,1,0,1,1,0,0,0,0,0,1,0,0,1,Act1
8,1.3368,0,0,0,7.4193,0,4.3952,0,0,0,0,0,0,0,0,0,0,0,0,0,0,0,0,Act-1
8.7451,1.3158,0.9346,0,0,2.494,0,1,0,1,1,0,0,0,0,0,1,0,0,0,0,1,0,0,Act1
8.413,1.4301,0.982,0,0,9.1862,0,4.782,0,1,1,1,0,1,1,0,1,0,0,1,1,1,0,1,Act1
8.3913,1.4301,1.0043,0,0,9.2225,0,4.782,0,1,1,1,0,1,1,0,1,0,0,0,1,1,0,1,Act-1
8.1667,1.3991,0.6705,0,0,13.6448,0,7.0856,0,1,1,1,0,0,0,0,0,0,0,0,1,1,0,1,Act-1
7.8031,1.2969,0.5839,0,0,12.9514,0,7.4052,0,1,1,1,0,0,0,0,0,0,0,0,1,1,0,1,Act1
7.5182,1.3049,0.9128,0,0,14.8087,0,11.1017,0,1,1,1,1,0,0,0,0,0,0,0,0,1,0,1,Act1
7.7157,1.2513,0.8049,0,0,9.6633,0,5.4273,0,1,0,1,0,0,0,0,0,0,0,0,1,1,0,0,Act-1
7.5755,1.4415,0.9729,0,0,16.4403,0,12.6313,0,1,1,1,0,2,2,0,0,1,0,0,1,1,0,1,Act-1
8.1167,1.19,1.0477,0,1,1.5194,0,3.7798,1,1,1,1,0,0,0,0,1,1,0,0,0,1,0,0,Act-1
7.6261,1.2797,0.9379,0,0,8.0314,0,11.0975,0,1,1,1,0,1,1,0,1,1,0,0,1,1,0,0,Act1
7.8041,1.227,1.1292,0,0,7.2121,0,2.8717,1,1,1,1,0,0,0,0,1,1,0,0,1,1,0,0,Act-1
7.9693,1.2949,0.647,0,0,18.45,0,7.0059,0,1,1,1,0,0,0,0,1,0,0,0,1,0,0,1,Act-1
8.3489,1.2427,1.0554,0,0,17.2454,0,7.0059,0,1,1,1,0,0,0,0,1,0,1,0,1,0,0,1,Act-1
8.412,1.2839,0,0,0,4.8334,0,3.7204,0,0,0,0,0,0,0,0,0,0,0,0,0,0,0,0,Act-1
8.412,1.2814,0,0,0,4.6767,0,3.3892,0,0,0,0,0,0,0,0,0,0,0,0,0,0,0,0,Act-1
7.875,1.2764,0.9023,0,0,11.2737,1,12.7174,0,1,0,1,0,0,0,0,0,0,0,1,1,0,0,1,Act-1
8.3929,1.2387,1.6908,0,0,4.2053,0,3.8183,1,1,1,0,0,0,0,0,0,0,0,0,0,0,0,0,Act-1
8.412,1.2814,0,0,0,4.7191,0,2.8717,0,0,0,0,0,0,0,0,0,0,0,0,0,0,0,0,Act-1
7.7361,1.2764,0.9303,0,0,12.6116,1,14.5759,0,1,0,1,0,0,0,0,0,0,0,1,1,0,0,1,Act-1
7.875,1.2764,0.9023,0,0,11.2206,1,13.7284,0,1,0,1,0,0,0,0,0,0,0,1,1,0,0,1,Act-1
8.2188,1.2253,1.0994,0,0,4.3479,0,6.1417,0,1,1,1,0,0,0,0,0,0,0,0,0,0,0,0,Act-1
8.3929,1.2387,0.6906,0,0,4.1884,0,4.5113,1,1,1,0,0,0,0,0,0,0,0,0,0,0,0,0,Act-1
8.412,1.2839,0,0,0,4.9054,0,3.3892,0,0,0,0,0,0,0,0,0,0,0,0,0,0,0,0,Act-1
8.2639,1.2992,0,0,0,7.0669,0,2.8717,0,0,0,0,0,0,0,0,0,0,0,0,0,1,0,0,Act-1
8.3333,1.2933,0,0,0,6.8496,0,2.8717,0,0,0,0,0,0,0,0,0,0,0,0,0,0,0,0,Act-1
7.5972,1.2813,0.961,0,0,13.8076,1,14.2161,0,1,0,1,0,0,0,0,0,0,0,1,1,0,0,1,Act-1
7.5167,1.2826,0.9187,0,0,14.2717,2,13.7242,0,1,1,1,0,0,0,0,0,0,0,1,1,0,0,1,Act-1
7.9524,1.2382,0.6972,0,0,7.7223,0,5.2569,0,1,1,0,0,0,0,0,0,0,0,0,0,0,0,0,Act-1
8.0256,1.246,0.3026,0,0,7.5993,0,4.3952,1,1,1,0,0,0,0,0,0,0,0,0,0,0,0,0,Act-1
7.4322,1.2706,0.8521,0,0,15.1611,0,12.7366,1,1,1,1,0,1,1,0,0,1,0,0,0,1,0,1,Act1
7.7133,1.3673,0.9539,0,0,14.8051,0,7.1986,1,1,1,1,0,1,1,0,1,0,0,0,1,0,0,1,Act-1
8.2932,1.2547,0,0,0,6.716,0,2.8717,0,0,0,0,0,0,0,0,0,0,1,0,0,0,0,0,Act-1
8.8611,1.027,0,0,0,0,0,0,0,0,0,0,0,0,0,0,0,0,0,0,0,0,0,0,Act-1
9.1389,1.1009,0,0,0,0,0,0,0,0,0,0,0,0,0,0,0,0,0,0,0,0,0,0,Act-1
8.0685,1.0378,0.0001,0,0,0,0,2.7495,0,1,1,0,0,0,0,0,0,0,0,0,0,0,0,0,Act-1
8.6181,1.3362,1.1076,0,0,5.6224,0,7.0043,0,1,1,1,0,0,0,0,0,0,1,1,1,0,0,1,Act1
7.9757,1.3457,1.0887,0,0,20.4323,0,6.3892,0,1,1,1,0,0,0,0,0,0,0,0,1,0,0,1,Act-1
8.1178,1.4324,1.0973,0,0,11.3398,0,7.3848,0,1,1,1,0,0,0,0,0,0,0,1,0,0,0,1,Act1
8.07,1.4476,0.922,0,0,15.821,0,6.5158,0,1,1,1,0,0,0,0,0,0,0,1,0,0,0,1,Act1
8.6364,1.3515,0.959,0,0,1.9291,0,4.436,0,1,1,0,0,0,0,0,0,0,0,0,0,0,0,1,Act-1
8.1867,1.4309,1.0709,0,0,13.0353,0,10.8903,0,1,1,1,0,0,0,0,0,0,0,0,0,0,0,1,Act-1
7.6024,1.5395,1.0802,0,0,33.1409,0,13.4016,0,1,1,1,0,0,0,0,0,0,0,0,1,0,0,1,Act1
8.4333,1.3459,0,0,0,6.6537,0,2.8717,0,0,0,0,0,0,0,0,0,0,0,0,0,0,0,0,Act-1
8.7143,1.11,0,0,0,0,0,1.8899,0,0,0,0,0,0,0,0,0,0,0,0,0,0,0,0,Act-1
8.9848,1.2885,0,0,0,2.5278,0,1,0,0,0,0,0,0,0,0,0,0,0,0,0,0,0,0,Act-1
9.6639,1.037,0,0,0,0,0,0,0,0,0,0,0,0,0,0,0,0,1,1,0,0,0,0,Act-1
10.1439,1.0648,0,0,0,0,0,1,0,0,0,0,0,0,0,0,0,0,1,1,0,0,0,0,Act-1
9.0425,1.2274,0.326,0,0,5.5684,0,3.2616,0,0,1,0,0,0,0,0,0,0,1,1,0,0,0,0,Act-1
8.8347,1.3446,0.871,0,1,7.5526,0,3.7798,1,1,1,0,0,0,0,0,0,1,1,0,0,0,0,1,Act-1
9.2101,1.177,0,0,1,3.5063,0,0,1,0,0,0,0,0,0,0,0,0,1,0,0,0,0,0,Act-1
8.5214,1.2788,0.8494,0,0,7.5153,0,2.7495,1,1,1,1,0,0,0,0,0,0,1,0,0,1,0,1,Act-1
9.6065,1.0421,0.7874,0,0,0,0,0,0,0,0,0,0,0,0,0,0,0,1,0,0,0,0,0,Act-1
7.9663,1.0209,0.0485,0,0,0,0,1.8899,0,1,0,0,0,0,0,0,0,0,0,0,0,0,0,0,Act-1
7.9663,1.0218,0.0582,0,0,0,0,3,0,1,0,0,0,0,0,0,0,0,0,0,0,0,0,0,Act-1
8.5411,1.3511,1.1842,0,0,11.3784,0,5.7423,0,1,1,1,0,0,0,0,0,0,0,1,0,0,0,1,Act-1
8.769,1.6662,0.7583,0,0,11.47,0,8.9714,1,1,1,1,0,0,0,0,0,0,1,1,0,0,0,1,Act1
9.1327,1.0821,0,0,0,0,0,0,0,0,0,0,0,0,0,0,0,0,1,1,0,0,0,0,Act-1
9.8939,1.1243,0,0,0,0,0,0,0,0,0,0,0,0,0,0,0,0,1,1,0,0,0,0,Act-1
9.5198,1.11,0,0,0,0,0,0,0,0,0,0,0,0,0,0,0,0,1,1,0,0,0,0,Act-1
7.8458,1.3625,0.9881,0,0,10.4129,0,5.9961,1,1,0,1,0,1,1,0,0,0,0,0,0,1,0,1,Act-1
8.6346,1.4145,0,0,0,6.7996,0,3.7204,0,0,0,0,0,0,0,0,0,0,0,0,0,0,0,1,Act-1
8.9773,1.3056,0,0,0,4.5988,0,3,0,0,0,0,0,0,0,0,0,0,1,0,0,0,0,0,Act-1
8.1711,1.4891,1.1136,0,1,13.7637,0,7.0854,1,1,1,1,0,0,0,0,0,1,1,0,1,0,0,1,Act1
8.1865,1.3892,0.6535,0,0,9.99,0,8.35,0,1,1,1,0,0,0,0,0,0,0,0,1,0,0,1,Act-1
8.3717,1.3892,1.5879,0,0,8.531,0,7.4726,0,1,1,1,0,0,0,0,0,0,0,0,1,0,0,1,Act-1
8.3264,1.3966,1.6022,0,0,10.3644,0,6.8529,0,1,1,1,0,0,0,0,0,0,0,0,1,0,0,1,Act-1
8.1865,1.3906,0.7336,0,0,10.0308,0,8.1883,0,1,1,1,0,0,0,0,0,0,0,0,1,0,0,1,Act-1
8.4504,1.325,0,0,0,3.0705,0,3.7893,0,0,0,0,0,0,0,0,0,0,0,0,0,0,0,0,Act-1
8.1468,1.3446,0.6616,0,0,10.3174,0,8.35,0,1,1,1,0,0,0,0,0,0,0,0,1,0,0,1,Act-1
8.0278,1.3543,0.7554,0,0,14.5195,0,7.717,0,1,1,1,0,0,0,0,0,0,0,0,1,0,0,1,Act-1
8.1267,1.3487,1.0525,0,0,19.0276,0,6.4692,0,1,1,1,0,0,0,0,0,0,1,0,1,0,0,1,Act1
7.9,1,0,0,0,0,0,0,0,0,0,0,0,0,0,1,0,0,1,0,0,0,0,0,Act-1
7.7442,1.2736,1.0484,0,0,17.8836,0,15.3604,1,1,1,1,0,1,1,0,0,0,0,0,0,1,0,1,Act-1
7.8306,1.0912,0.8997,0,0,0,0,9.8502,0,1,1,1,0,0,0,0,0,0,0,0,0,0,0,0,Act-1
7.7677,1.3894,0.9943,0,0,10.9197,1,6.3233,1,1,1,1,0,0,0,0,0,1,0,0,1,1,1,1,Act-1
8.1667,1.1444,0.8899,0,0,0,0,3,1,1,1,0,0,0,0,0,1,1,0,0,1,1,1,0,Act-1
7.99,1.4476,1.0667,0,0,16.5879,0,6.5158,0,1,1,1,0,0,0,0,0,0,0,0,0,0,0,1,Act-1
8.0217,1.3714,0.9867,0,0,16.0034,0,8.9392,0,1,1,1,0,0,0,0,0,0,0,0,0,0,0,1,Act-1
7.8333,1.169,0.6996,0,0,3.5648,0,7.2087,1,1,1,1,0,0,0,0,0,0,0,0,0,0,0,0,Act-1
8.2719,1.2675,0.7291,1,0,3.1404,0,4.7622,1,1,1,0,0,0,0,0,0,0,0,0,0,0,0,0,Act-1
8.3485,1.2371,0,0,0,4.2407,0,3,0,0,0,0,0,0,0,0,0,0,0,0,0,0,0,0,Act-1
8.114,1.3746,1.2012,1,0,15.7281,0,7.8477,0,1,1,1,0,0,0,0,0,0,0,0,0,0,0,1,Act-1
8.5944,1.2382,0.3095,1,0,4.1062,1,4.436,0,1,1,0,0,0,0,0,0,0,0,0,0,0,1,0,Act-1
8.2879,1.4535,0.9774,2,0,8.0087,0,6.3233,1,1,1,1,0,1,1,0,0,1,0,0,0,1,1,1,Act-1
7.6325,1.6883,1.105,0,2,27.9018,0,14.8395,0,1,1,1,0,0,0,0,0,1,0,0,1,0,0,1,Act-1
8.4259,1.3139,0,0,0,8.2956,0,2.8717,0,0,0,0,0,0,0,0,0,0,0,0,0,0,0,0,Act-1
7.8698,1.4417,0.9274,1,0,15.5801,0,12.369,0,1,1,1,0,2,2,0,0,1,0,0,1,1,0,1,Act-1
8.8269,1.3346,1.1484,0,0,3.7302,0,8.1855,1,1,0,1,0,0,0,0,0,0,0,1,0,0,1,1,Act-1
8.0343,1.2109,0.8544,0,0,4.759,0,5.5432,0,1,0,1,0,0,0,0,0,0,0,0,0,0,0,0,Act-1
7.4375,1.2486,0.9054,0,0,31.0974,0,13.9281,1,1,1,1,0,0,0,0,0,0,0,1,0,0,0,1,Act1
8.537,1.3139,0,0,0,5.9242,0,1.8899,0,0,0,0,0,0,0,0,0,0,0,0,0,0,0,0,Act-1
7.5625,1.3195,0.9812,0,0,9.5681,0,9.8592,1,1,1,1,0,0,0,0,0,0,0,0,0,0,0,1,Act-1
7.3452,1.1419,0.9927,0,0,10.431,0,8.6078,0,1,0,1,0,0,0,0,0,0,0,0,0,0,0,0,Act1
7.3442,1.1513,1.0326,0,0,10.4599,0,9.2228,0,1,1,1,0,0,0,0,0,0,0,0,0,0,0,0,Act1
7.4583,1.2573,1.0315,0,0,20.1393,0,9.317,0,1,1,1,0,0,0,0,0,0,0,0,0,0,0,1,Act1
7.5917,1.304,0.8942,0,0,11.6686,0,9.5363,1,1,1,1,0,0,0,0,0,0,0,0,1,1,0,1,Act-1
8.0682,1.3114,0.9026,0,0,11.0811,0,9.7105,0,1,1,1,0,0,0,0,0,0,0,0,0,0,0,1,Act-1
7.9583,1.3126,0.8428,0,0,14.6407,0,10.9206,0,1,1,1,0,0,0,0,0,0,0,0,0,0,1,1,Act-1
7.8167,1.3404,0.3194,0,0,9.8916,0,4.1689,0,1,1,0,0,0,0,0,0,0,0,0,0,0,0,0,Act-1
9.2,1,0,0,0,0,0,0,0,0,0,0,0,0,0,0,0,0,0,0,0,0,0,0,Act-1
9.1944,1,0.0001,0,0,0,0,0,0,0,0,0,0,0,0,0,0,0,0,0,0,0,0,0,Act-1
8.6667,1,0,0,0,0,0,0,0,0,0,0,0,0,0,0,0,0,0,0,0,0,0,0,Act-1
8.1071,1.41,1.3678,0,0,14.3658,0,8.1901,0,1,1,1,0,0,0,0,0,0,0,0,1,0,0,1,Act1
8.0877,1.2031,0.9236,0,1,1.5528,0,0,1,1,1,1,0,0,0,0,0,1,0,0,1,1,0,0,Act-1
8.637,1,1.0451,0,0,0,0,0,0,1,1,1,0,0,0,0,0,0,0,0,0,0,0,0,Act-1
8.4737,1.1701,1.077,0,0,5.6868,0,3,0,1,1,1,0,0,0,0,0,0,0,0,0,0,0,0,Act-1
8.3333,1.1593,0.9535,0,0,6.6015,0,2.96,0,1,1,1,0,0,0,0,0,0,0,0,0,0,0,0,Act-1
8.7572,1,0.994,0,0,0,0,0,0,1,1,1,0,0,0,0,0,0,0,0,0,0,0,0,Act-1
8.9722,1,0,0,0,0,0,0,0,0,0,0,0,0,0,0,0,0,0,0,0,0,0,0,Act-1
8.5109,1,0.8811,0,0,0,0,3,0,1,1,1,0,0,0,0,0,0,0,0,0,0,0,0,Act-1
8.7572,1,0.9269,0,0,0,0,0,0,1,1,1,0,0,0,0,0,0,0,0,0,0,0,0,Act-1
8.0032,1.1054,0.8596,0,0,0,0,6.2172,0,1,1,1,0,0,0,0,0,0,0,0,0,0,0,0,Act-1
7.9784,1.1039,0.7288,0,0,0,0,6.2437,0,1,1,1,0,0,0,0,0,0,0,0,0,0,0,0,Act-1
7.7214,1.0913,0.9611,0,0,0,0,6.2172,0,1,1,1,0,0,0,0,0,0,0,0,0,0,0,0,Act-1
8.0545,1.1135,0.892,0,0,0,0,6.2172,0,1,1,1,0,0,0,0,0,0,0,0,0,0,0,0,Act-1
7.5482,1.1793,0.8594,0,0,7.8974,0,6.0422,0,1,1,1,0,0,0,0,0,0,0,0,1,0,0,0,Act-1
7.7685,1.1932,1.0181,0,0,3.7506,0,7.5836,1,1,1,1,0,0,0,0,0,0,0,0,0,0,0,0,Act1
7.6282,1.2454,0,0,0,6.0021,0,5.7259,0,1,0,0,0,0,0,0,0,0,0,0,0,0,0,0,Act-1
8.0812,1.4262,0,0,0,6.6106,0,5.0382,0,0,0,0,0,0,0,0,0,0,0,0,0,0,0,1,Act1
8.2164,1.3728,0.7186,0,0,5.9067,0,3.909,0,1,1,1,0,0,0,0,0,0,0,0,0,0,0,1,Act-1
7.7749,1.4262,0,0,0,7.4637,0,5.0382,0,0,0,0,0,0,0,0,0,0,0,0,0,0,0,1,Act-1
8.3889,1.2563,0,0,0,1.445,0,3,1,0,0,0,0,0,0,0,0,0,0,0,0,0,0,0,Act-1
8.4036,1.2054,0.9119,0,0,4.5843,1,7.2251,1,1,1,1,0,0,0,0,0,0,0,0,0,0,1,0,Act-1
8.5152,1.2597,0.9574,0,0,3.9901,1,7.3909,1,1,1,1,0,0,0,0,0,0,0,0,0,0,1,0,Act-1
8.0784,1.3837,0.7832,0,0,9.3925,0,7.9039,0,1,1,1,0,0,0,0,0,0,0,0,0,0,0,1,Act-1
8.7222,1.2832,0,0,0,3.4158,0,1,0,0,0,0,0,0,0,0,0,0,0,0,0,0,0,0,Act-1
8.125,1.3374,0.9022,0,0,7.9374,0,5.2454,1,1,1,1,0,0,0,0,0,0,0,0,1,0,0,1,Act-1
8.0889,1.2589,0.9552,0,0,8.5857,0,11.8745,0,1,1,1,0,0,0,0,0,0,0,0,0,0,0,1,Act-1
7.4861,1.2908,1.2174,0,0,16.463,0,8.8902,0,1,1,1,0,0,0,0,0,0,0,0,0,0,0,1,Act-1
7.9815,1.4373,0,0,0,8.4256,0,4.6147,0,0,0,0,0,0,0,0,0,0,0,0,0,0,0,1,Act-1
8.1806,1.2969,0,0,0,6.3596,0,2.8717,0,0,0,0,0,0,0,0,0,0,0,0,0,0,0,0,Act-1
8.0719,1.3866,0.7953,0,0,9.6006,0,7.382,0,1,1,1,0,0,0,0,0,0,0,0,0,0,0,1,Act1
7.7852,1.3959,0.8598,0,0,15.1029,0,7.1564,0,1,1,1,0,0,0,0,0,0,0,0,0,0,0,1,Act1
8.4167,1.2969,0,0,0,5.7037,0,3,0,0,0,0,0,0,0,0,0,0,0,0,0,0,0,0,Act-1
7.7667,1.3814,1.0571,0,0,16.6876,0,7.2383,0,1,1,1,0,0,0,0,0,0,0,0,0,0,0,1,Act1
7.6346,1.1442,0.7966,0,0,3.7152,0,8.0907,1,1,1,1,0,0,0,0,0,0,0,0,0,0,0,0,Act-1
7.7372,1.6881,0.9986,0,0,39.9282,0,13.189,0,1,1,1,0,0,0,0,0,0,0,0,1,1,0,1,Act-1
8.4167,1.2975,0,0,0,5.8513,0,2.7495,0,0,0,0,0,0,0,0,0,0,0,0,0,0,0,0,Act1
7.8636,1.4507,0,0,0,10.7943,0,4.436,0,0,0,0,0,0,0,0,0,0,0,0,0,0,0,1,Act1
8.0238,1.3154,0,0,0,8.7127,0,2.8717,0,0,0,0,0,0,0,0,0,0,0,0,0,0,0,0,Act-1
8.7,1.3039,0,0,0,5.8116,0,2.8717,0,0,0,0,0,0,0,0,0,0,0,0,0,0,0,0,Act-1
8.7454,1,0.3184,0,0,0,0,0,1,1,1,0,0,0,0,0,0,0,0,0,0,0,0,0,Act-1
8.2137,1.2321,0.7357,0,0,6.7949,0,2.8717,0,1,1,0,0,0,0,0,0,0,0,0,0,0,0,0,Act-1
7.7,1.2511,0.957,0,0,15.4234,0,18.0254,0,1,1,1,0,0,0,0,0,0,0,0,0,0,0,1,Act-1
7.8611,1.2616,0.9567,0,0,10.1799,0,15.5127,0,1,1,1,0,0,0,0,0,0,0,0,0,0,0,1,Act1
8.1722,1.2718,0,0,0,4.9983,0,3.5541,0,0,0,0,0,0,0,0,0,0,0,0,0,0,0,0,Act1
7.8958,1.2954,0,0,0,9.5241,0,2.8717,0,0,0,0,0,0,0,0,0,0,0,0,0,0,0,0,Act1
8.2593,1.2846,0,0,0,6.709,0,2.8717,0,0,0,0,0,0,0,0,0,0,0,0,0,0,0,0,Act-1
7.7424,1.2496,0.7108,0,0,9.9807,0,5.4273,0,1,1,0,0,0,0,0,0,0,0,0,0,0,0,0,Act-1
7.75,1.2996,1.1168,0,0,0,0,4.5113,1,1,1,1,0,0,0,0,0,1,0,0,1,1,0,1,Act-1
8.4,1,0,0,0,0,0,0,0,0,0,0,0,0,0,0,0,0,0,0,0,0,0,0,Act-1
7.9246,1.2387,0.2771,0,0,5.5125,0,2.7495,1,1,1,0,0,0,0,0,0,0,0,0,0,0,0,0,Act-1
7.9861,1.3041,1.2362,0,0,11.9873,0,6.4522,0,1,1,1,1,0,0,0,0,0,0,1,0,1,0,1,Act-1
7.4321,1.3861,0.9689,0,0,17.3566,0,6.4497,0,1,1,1,0,0,0,0,0,0,0,0,0,1,0,1,Act1
7.9972,1.3041,1.249,0,0,11.9498,0,6.4522,0,1,1,1,1,0,0,0,0,0,0,0,0,1,0,1,Act1
7.6337,1.3909,0.9529,0,0,28.7819,0,7.6207,0,1,1,1,0,0,0,0,0,0,0,0,0,0,0,1,Act-1
7.9167,1.2629,0.3289,0,0,9.4271,0,2.8717,0,1,1,0,0,0,0,0,0,0,0,0,0,0,0,0,Act-1
7.5247,1.3638,0.8394,0,0,16.9442,0,6.7151,0,1,1,1,1,0,0,0,0,1,0,0,1,0,0,1,Act-1
8.3,1,1.0227,0,0,0,0,0,0,1,1,0,0,0,0,0,0,0,0,0,0,0,0,0,Act-1
8.5655,1.3031,0.5636,0,0,5.5679,0,3,0,1,0,0,2,0,0,0,0,0,0,0,0,0,1,0,Act-1
8.9799,1.3093,0.9598,0,0,6.0254,0,8.9941,1,1,1,1,0,0,0,0,0,0,0,0,0,0,0,1,Act-1
8.6136,1.3056,0,0,0,5.7032,0,3,0,0,0,0,0,0,0,0,0,0,0,0,0,0,1,0,Act-1
7.7138,1.3152,1.0581,0,0,8.372,0,5.7007,0,1,1,1,0,0,0,0,0,0,0,0,1,0,0,1,Act-1
8.1343,1.2374,1.1762,0,0,6.6848,0,5.681,0,1,1,1,0,0,0,0,0,0,0,0,0,0,0,0,Act-1
8.1814,1.3699,1.3045,0,0,12.1873,0,5.7423,0,1,0,1,0,0,0,0,0,0,0,0,0,0,1,1,Act-1
8.6012,1.2755,0.7588,0,0,5.574,0,5,0,1,1,0,0,0,0,0,0,0,0,0,0,0,1,0,Act-1
8.1806,1.3241,1.054,0,0,5.8954,0,6.7771,1,1,1,1,0,1,1,0,0,0,0,0,0,1,1,1,Act-1
8.2024,1.349,0.9427,0,0,6.9365,0,3,0,1,1,1,1,0,0,0,0,1,0,0,0,1,1,1,Act-1
8.2149,1.3529,0.813,0,0,8.4355,0,5,0,1,1,1,1,0,0,0,0,1,0,0,0,1,1,1,Act-1
8.1716,1.3631,0.8825,0,0,12.464,0,6.6683,0,1,0,1,1,0,0,0,0,1,0,0,0,0,1,1,Act-1
8.0595,1.4861,0.7838,0,0,14.5468,0,6.4375,1,1,1,1,1,1,1,0,0,1,0,0,0,0,1,1,Act-1
8.1806,1.3208,1.1066,0,0,5.863,0,4.7785,0,1,1,1,1,0,0,0,1,0,0,0,0,0,1,1,Act-1
8.1184,1.3526,1.0562,0,0,7.6761,0,5.0763,0,1,0,1,2,0,0,0,0,0,0,0,0,1,1,1,Act-1
8.1713,1.358,0.9347,0,0,9.058,0,4.7785,0,1,0,1,2,0,0,0,0,0,0,0,0,1,1,1,Act-1
8.2304,1.3631,0.7754,0,0,10.3658,0,5,0,1,0,1,2,0,0,0,0,0,0,0,0,1,1,1,Act-1
8.2031,1.3311,0.8926,0,0,9.2041,0,5,0,1,0,1,1,0,0,0,0,0,0,0,0,0,1,1,Act-1
7.3519,1.0252,1.2475,0,0,0,0,4.5113,0,1,0,1,2,0,0,0,0,0,0,0,0,0,0,0,Act1
7.6667,1.2785,0,0,0,7.9228,0,2.7495,0,0,0,0,0,0,0,0,0,0,0,0,0,0,0,0,Act-1
7.8667,1.2982,0,0,1,1.5707,0,0,0,0,0,0,1,0,0,0,0,1,0,0,0,1,0,0,Act-1
7.4286,1.2907,0.8648,0,0,21.1358,0,10.2942,0,1,0,1,0,0,0,0,0,0,0,0,0,1,0,1,Act1
7.2702,1.0226,0,0,0,0,0,0,0,0,0,0,0,0,0,0,0,0,0,0,0,0,0,0,Act-1
8.2355,1.3592,0.9647,0,0,7.5773,0,7.7082,1,1,1,1,0,0,0,0,0,0,0,0,0,0,0,1,Act-1
8.0259,1.3183,1.013,1,0,11.1279,0,9.9879,1,1,1,1,1,0,0,1,0,0,0,0,0,0,0,1,Act-1
7.5247,1.3638,0.8394,0,0,16.9442,0,6.7151,0,1,1,1,1,0,0,0,0,1,0,0,1,0,0,1,Act-1
7.3667,1.3571,1.075,0,0,17.3569,0,6.604,0,1,0,1,1,0,0,0,0,0,0,0,0,0,0,1,Act-1
7.2778,1.3142,1.1678,0,0,15.8283,0,8.5056,0,1,0,1,1,0,0,0,0,0,0,0,0,1,0,1,Act-1
7.2733,1.3201,1.151,0,0,15.7659,0,9.5661,0,1,0,1,1,0,0,0,0,0,0,0,0,1,0,1,Act-1
8.31,1.1552,1.0404,1,0,5.9045,0,7.0607,1,1,1,1,1,0,0,1,0,0,0,0,0,0,1,0,Act-1
8.191,1.1531,1.0867,1,0,8.8768,0,7.6555,1,1,1,1,1,0,0,1,0,0,0,0,0,0,1,0,Act-1
8.0982,1.2805,0.8985,1,0,9.152,0,10.5984,1,1,1,1,1,0,0,1,0,0,0,0,1,1,0,1,Act-1
8.2014,1.1993,1.0269,1,0,8.8604,0,8.5256,1,1,1,1,1,0,0,1,0,0,0,0,0,0,1,0,Act-1
8.32,1.2005,0.9796,1,0,5.8906,0,8.2253,1,1,1,1,1,0,0,1,0,0,0,0,0,0,1,0,Act-1
8.3102,1.175,1.1075,1,0,1.5815,0,4.7622,1,1,1,1,2,3,3,1,0,0,0,0,0,1,1,0,Act-1
7.62,1.2491,0.5714,1,0,8.6715,0,8.792,0,1,1,1,0,0,0,0,0,0,0,0,0,0,0,1,Act-1
7.5,1.3595,0.6694,0,0,12.6395,0,5.5726,0,1,1,1,0,0,0,0,0,0,0,0,1,0,0,1,Act-1
7.5714,1.4774,1.0506,0,1,11.7634,0,4.7451,0,1,0,0,0,0,0,0,0,1,0,0,1,0,0,1,Act-1
7.6056,1.4118,0,0,0,8.029,0,3.7204,0,0,0,0,0,0,0,0,0,0,0,0,0,0,0,1,Act-1